@relation TravelDestinations

@attribute price numeric
@attribute temperature numeric
@attribute popularity numeric
@attribute beach {0, 1}
@attribute mountain {0, 1}
@attribute jungle {0, 1}
@attribute desert {0, 1}
@attribute historic {0, 1}
@attribute cultural {0, 1}
@attribute gastronomic {0, 1}
@attribute night_life {0, 1}
@attribute eco_turism {0, 1}
@attribute adventure {0, 1}
@attribute clase {'Bogota', 'Medellin', 'Monteria', 'Pereira', 'Cali', 'Barranquilla', 'Narino', 'Bucaramanga', 'Armenia', 'Nueva York', 'Chicago', 'Miami', 'Los Angeles', 'Londres', 'Manchester', 'Edinburgo', 'Cancun', 'Ottawa', 'Paris', 'Roma', 'Sidney'}

@data
180,21,6,0,1,0,0,1,1,1,1,0,1,'Bogota'
200,17,8,0,1,0,0,1,1,1,1,0,1,'Bogota'
190,19,7,0,1,0,0,1,1,1,1,0,1,'Bogota'
210,16,5,0,1,0,0,1,1,1,1,0,1,'Bogota'
164,18,7,0,1,0,0,1,1,1,1,0,1,'Bogota'
180,22,6,0,1,0,0,1,1,1,1,0,1,'Bogota'
200,17,8,0,1,0,0,1,1,1,1,0,1,'Bogota'
192,19,7,0,1,0,0,1,1,1,1,0,1,'Bogota'
214,16,5,0,1,0,0,1,1,1,1,0,1,'Bogota'
170,14,7,0,1,0,0,1,1,1,1,0,1,'Bogota'
180,18,6,0,1,0,0,1,1,1,1,0,1,'Bogota'
200,17,8,0,1,0,0,1,1,1,1,0,1,'Bogota'
190,19,7,0,1,0,0,1,1,1,1,0,1,'Bogota'
210,13,5,0,1,0,0,1,1,1,1,0,1,'Bogota'
170,18,7,0,1,0,0,1,1,1,1,0,1,'Bogota'
180,15,6,0,1,0,0,1,1,1,1,0,1,'Bogota'
200,17,8,0,1,0,0,1,1,1,1,0,1,'Bogota'
190,19,7,0,1,0,0,1,1,1,1,0,1,'Bogota'
210,16,5,0,1,0,0,1,1,1,1,0,1,'Bogota'
162,23,7,0,1,0,0,1,1,1,1,0,1,'Bogota'
178,18,6,0,1,0,0,1,1,1,1,0,1,'Bogota'
208,17,8,0,1,0,0,1,1,1,1,0,1,'Bogota'
190,19,7,0,1,0,0,1,1,1,1,0,1,'Bogota'
210,16,5,0,1,0,0,1,1,1,1,0,1,'Bogota'
175,17,7,0,1,0,0,1,1,1,1,0,1,'Bogota'
180,18,6,0,1,0,0,1,1,1,1,0,1,'Bogota'
201,18,8,0,1,0,0,1,1,1,1,0,1,'Bogota'
190,19,7,0,1,0,0,1,1,1,1,0,1,'Bogota'
212,16,5,0,1,0,0,1,1,1,1,0,1,'Bogota'
174,14,7,0,1,0,0,1,1,1,1,0,1,'Bogota'
180,21,6,0,1,0,0,1,1,1,1,0,1,'Bogota'
200,17,8,0,1,0,0,1,1,1,1,0,1,'Bogota'
190,19,7,0,1,0,0,1,1,1,1,0,1,'Bogota'
210,16,5,0,1,0,0,1,1,1,1,0,1,'Bogota'
164,18,7,0,1,0,0,1,1,1,1,0,1,'Bogota'
180,22,6,0,1,0,0,1,1,1,1,0,1,'Bogota'
200,17,8,0,1,0,0,1,1,1,1,0,1,'Bogota'
192,19,7,0,1,0,0,1,1,1,1,0,1,'Bogota'
214,16,5,0,1,0,0,1,1,1,1,0,1,'Bogota'
170,14,7,0,1,0,0,1,1,1,1,0,1,'Bogota'
180,18,6,0,1,0,0,1,1,1,1,0,1,'Bogota'
200,17,8,0,1,0,0,1,1,1,1,0,1,'Bogota'
190,19,7,0,1,0,0,1,1,1,1,0,1,'Bogota'
210,13,5,0,1,0,0,1,1,1,1,0,1,'Bogota'
170,18,7,0,1,0,0,1,1,1,1,0,1,'Bogota'
180,15,6,0,1,0,0,1,1,1,1,0,1,'Bogota'
200,17,8,0,1,0,0,1,1,1,1,0,1,'Bogota'
190,19,7,0,1,0,0,1,1,1,1,0,1,'Bogota'
210,16,5,0,1,0,0,1,1,1,1,0,1,'Bogota'
162,23,7,0,1,0,0,1,1,1,1,0,1,'Bogota'
178,18,6,0,1,0,0,1,1,1,1,0,1,'Bogota'
208,17,8,0,1,0,0,1,1,1,1,0,1,'Bogota'
190,19,7,0,1,0,0,1,1,1,1,0,1,'Bogota'
210,16,5,0,1,0,0,1,1,1,1,0,1,'Bogota'
175,17,7,0,1,0,0,1,1,1,1,0,1,'Bogota'
180,18,6,0,1,0,0,1,1,1,1,0,1,'Bogota'
201,18,8,0,1,0,0,1,1,1,1,0,1,'Bogota'
190,19,7,0,1,0,0,1,1,1,1,0,1,'Bogota'
212,16,5,0,1,0,0,1,1,1,1,0,1,'Bogota'
174,14,7,0,1,0,0,1,1,1,1,0,1,'Bogota'
180,21,6,0,1,0,0,1,1,1,1,0,1,'Bogota'
200,17,8,0,1,0,0,1,1,1,1,0,1,'Bogota'
190,19,7,0,1,0,0,1,1,1,1,0,1,'Bogota'
210,16,5,0,1,0,0,1,1,1,1,0,1,'Bogota'
164,18,7,0,1,0,0,1,1,1,1,0,1,'Bogota'
180,22,6,0,1,0,0,1,1,1,1,0,1,'Bogota'
204,17,8,0,1,0,0,1,1,1,1,0,1,'Bogota'
192,19,7,0,1,0,0,1,1,1,1,0,1,'Bogota'
214,22,5,0,1,0,0,1,1,1,1,0,1,'Bogota'
172,14,7,0,1,0,0,1,1,1,1,0,1,'Bogota'
180,18,6,0,1,0,0,1,1,1,1,0,1,'Bogota'
212,17,8,0,1,0,0,1,1,1,1,0,1,'Bogota'
190,19,7,0,1,0,0,1,1,1,1,0,1,'Bogota'
210,13,5,0,1,0,0,1,1,1,1,0,1,'Bogota'
170,18,7,0,1,0,0,1,1,1,1,0,1,'Bogota'
180,15,6,0,1,0,0,1,1,1,1,0,1,'Bogota'
200,17,8,0,1,0,0,1,1,1,1,0,1,'Bogota'
190,19,7,0,1,0,0,1,1,1,1,0,1,'Bogota'
210,16,5,0,1,0,0,1,1,1,1,0,1,'Bogota'
162,23,7,0,1,0,0,1,1,1,1,0,1,'Bogota'
178,18,6,0,1,0,0,1,1,1,1,0,1,'Bogota'
208,17,8,0,1,0,0,1,1,1,1,0,1,'Bogota'
190,19,7,0,1,0,0,1,1,1,1,0,1,'Bogota'
210,16,5,0,1,0,0,1,1,1,1,0,1,'Bogota'
175,17,7,0,1,0,0,1,1,1,1,0,1,'Bogota'
181,18,6,0,1,0,0,1,1,1,1,0,1,'Bogota'
201,18,8,0,1,0,0,1,1,1,1,0,1,'Bogota'
190,21,7,0,1,0,0,1,1,1,1,0,1,'Bogota'
212,16,5,0,1,0,0,1,1,1,1,0,1,'Bogota'
174,23,7,0,1,0,0,1,1,1,1,0,1,'Bogota'
150,24,8,0,1,0,0,0,1,1,1,0,1,'Medellin'
160,23,9,0,1,0,0,0,1,1,1,0,1,'Medellin'
139,25,7,0,1,0,0,0,1,1,1,0,1,'Medellin'
170,22,7,0,1,0,0,0,1,1,1,0,1,'Medellin'
135,21,8,0,1,0,0,0,1,1,1,0,1,'Medellin'
150,24,8,0,1,0,0,0,1,1,1,0,1,'Medellin'
160,23,9,0,1,0,0,0,1,1,1,0,1,'Medellin'
140,25,7,0,1,0,0,0,1,1,1,0,1,'Medellin'
172,22,7,0,1,0,0,0,1,1,1,0,1,'Medellin'
135,21,8,0,1,0,0,0,1,1,1,0,1,'Medellin'
150,24,8,0,1,0,0,0,1,1,1,0,1,'Medellin'
160,23,9,0,1,0,0,0,1,1,1,0,1,'Medellin'
143,25,7,0,1,0,0,0,1,1,1,0,1,'Medellin'
170,22,7,0,1,0,0,0,1,1,1,0,1,'Medellin'
137,21,8,0,1,0,0,0,1,1,1,0,1,'Medellin'
150,24,8,0,1,0,0,0,1,1,1,0,1,'Medellin'
160,23,9,0,1,0,0,0,1,1,1,0,1,'Medellin'
145,25,7,0,1,0,0,0,1,1,1,0,1,'Medellin'
172,22,7,0,1,0,0,0,1,1,1,0,1,'Medellin'
135,21,8,0,1,0,0,0,1,1,1,0,1,'Medellin'
150,24,8,0,1,0,0,0,1,1,1,0,1,'Medellin'
160,23,9,0,1,0,0,0,1,1,1,0,1,'Medellin'
140,25,7,0,1,0,0,0,1,1,1,0,1,'Medellin'
170,22,7,0,1,0,0,0,1,1,1,0,1,'Medellin'
135,21,8,0,1,0,0,0,1,1,1,0,1,'Medellin'
150,24,8,0,1,0,0,0,1,1,1,0,1,'Medellin'
161,23,9,0,1,0,0,0,1,1,1,0,1,'Medellin'
145,25,7,0,1,0,0,0,1,1,1,0,1,'Medellin'
170,22,7,0,1,0,0,0,1,1,1,0,1,'Medellin'
135,21,8,0,1,0,0,0,1,1,1,0,1,'Medellin'
150,24,8,0,1,0,0,0,1,1,1,0,1,'Medellin'
160,23,9,0,1,0,0,0,1,1,1,0,1,'Medellin'
140,25,7,0,1,0,0,0,1,1,1,0,1,'Medellin'
170,22,7,0,1,0,0,0,1,1,1,0,1,'Medellin'
135,21,8,0,1,0,0,0,1,1,1,0,1,'Medellin'
150,24,8,0,1,0,0,0,1,1,1,0,1,'Medellin'
160,23,9,0,1,0,0,0,1,1,1,0,1,'Medellin'
140,25,7,0,1,0,0,0,1,1,1,0,1,'Medellin'
170,22,7,0,1,0,0,0,1,1,1,0,1,'Medellin'
135,21,8,0,1,0,0,0,1,1,1,0,1,'Medellin'
150,24,8,0,1,0,0,0,1,1,1,0,1,'Medellin'
160,23,9,0,1,0,0,0,1,1,1,0,1,'Medellin'
151,25,7,0,1,0,0,0,1,1,1,0,1,'Medellin'
170,22,7,0,1,0,0,0,1,1,1,0,1,'Medellin'
135,21,8,0,1,0,0,0,1,1,1,0,1,'Medellin'
150,24,8,0,1,0,0,0,1,1,1,0,1,'Medellin'
160,23,9,0,1,0,0,0,1,1,1,0,1,'Medellin'
140,25,7,0,1,0,0,0,1,1,1,0,1,'Medellin'
170,22,7,0,1,0,0,0,1,1,1,0,1,'Medellin'
135,21,8,0,1,0,0,0,1,1,1,0,1,'Medellin'
150,24,8,0,1,0,0,0,1,1,1,0,1,'Medellin'
160,23,9,0,1,0,0,0,1,1,1,0,1,'Medellin'
140,25,7,0,1,0,0,0,1,1,1,0,1,'Medellin'
170,22,7,0,1,0,0,0,1,1,1,0,1,'Medellin'
135,21,8,0,1,0,0,0,1,1,1,0,1,'Medellin'
150,24,8,0,1,0,0,0,1,1,1,0,1,'Medellin'
160,23,9,0,1,0,0,0,1,1,1,0,1,'Medellin'
140,25,7,0,1,0,0,0,1,1,1,0,1,'Medellin'
170,22,7,0,1,0,0,0,1,1,1,0,1,'Medellin'
135,21,8,0,1,0,0,0,1,1,1,0,1,'Medellin'
150,24,8,0,1,0,0,0,1,1,1,0,1,'Medellin'
160,23,9,0,1,0,0,0,1,1,1,0,1,'Medellin'
140,25,7,0,1,0,0,0,1,1,1,0,1,'Medellin'
170,22,7,0,1,0,0,0,1,1,1,0,1,'Medellin'
135,21,8,0,1,0,0,0,1,1,1,0,1,'Medellin'
150,24,8,0,1,0,0,0,1,1,1,0,1,'Medellin'
166,23,9,0,1,0,0,0,1,1,1,0,1,'Medellin'
140,25,7,0,1,0,0,0,1,1,1,0,1,'Medellin'
170,22,7,0,1,0,0,0,1,1,1,0,1,'Medellin'
135,21,8,0,1,0,0,0,1,1,1,0,1,'Medellin'
157,24,8,0,1,0,0,0,1,1,1,0,1,'Medellin'
161,23,9,0,1,0,0,0,1,1,1,0,1,'Medellin'
140,25,7,0,1,0,0,0,1,1,1,0,1,'Medellin'
172,22,7,0,1,0,0,0,1,1,1,0,1,'Medellin'
135,21,8,0,1,0,0,0,1,1,1,0,1,'Medellin'
150,24,8,0,1,0,0,0,1,1,1,0,1,'Medellin'
160,23,9,0,1,0,0,0,1,1,1,0,1,'Medellin'
140,25,7,0,1,0,0,0,1,1,1,0,1,'Medellin'
170,22,7,0,1,0,0,0,1,1,1,0,1,'Medellin'
135,21,8,0,1,0,0,0,1,1,1,0,1,'Medellin'
145,24,8,0,1,0,0,0,1,1,1,0,1,'Medellin'
162,23,9,0,1,0,0,0,1,1,1,0,1,'Medellin'
140,25,7,0,1,0,0,0,1,1,1,0,1,'Medellin'
171,22,7,0,1,0,0,0,1,1,1,0,1,'Medellin'
135,21,8,0,1,0,0,0,1,1,1,0,1,'Medellin'
150,24,8,0,1,0,0,0,1,1,1,0,1,'Medellin'
166,23,9,0,1,0,0,0,1,1,1,0,1,'Medellin'
147,25,7,0,1,0,0,0,1,1,1,0,1,'Medellin'
155,22,7,0,1,0,0,0,1,1,1,0,1,'Medellin'
135,21,8,0,1,0,0,0,1,1,1,0,1,'Medellin'
128,30,3,1,0,1,0,0,0,1,0,1,1,'Monteria'
109,31,6,1,0,0,0,0,0,1,0,0,1,'Monteria'
130,29,5,0,0,1,0,0,0,1,0,1,0,'Monteria'
115,30,4,1,0,1,0,0,0,0,0,1,1,'Monteria'
123,31,5,1,0,0,0,0,0,1,0,0,1,'Monteria'
120,30,5,0,0,1,0,0,0,1,0,1,1,'Monteria'
110,34,4,1,0,1,0,0,0,1,0,1,1,'Monteria'
130,29,5,1,0,1,0,0,0,1,0,1,0,'Monteria'
115,30,4,1,0,1,0,0,0,1,0,1,1,'Monteria'
125,31,5,1,0,0,0,0,0,1,0,0,1,'Monteria'
120,35,5,0,0,1,0,0,0,1,0,1,1,'Monteria'
113,31,3,1,0,0,0,0,0,0,0,0,1,'Monteria'
130,29,5,1,0,0,0,0,0,0,0,1,0,'Monteria'
115,30,4,0,0,1,0,0,0,0,0,0,1,'Monteria'
125,31,3,1,0,1,0,0,0,0,0,1,0,'Monteria'
120,30,5,1,0,0,0,0,0,1,0,1,1,'Monteria'
110,32,4,0,0,0,0,0,0,0,0,0,1,'Monteria'
130,29,5,1,0,1,0,0,0,1,0,1,0,'Monteria'
118,30,4,0,0,1,0,0,0,1,0,1,1,'Monteria'
125,31,5,1,0,1,0,0,0,1,0,1,1,'Monteria'
121,30,6,1,0,1,0,0,0,1,0,1,0,'Monteria'
110,35,4,1,0,1,0,0,0,1,0,1,0,'Monteria'
130,29,5,0,0,1,0,0,0,1,0,1,1,'Monteria'
115,30,4,1,0,0,0,0,0,0,0,0,1,'Monteria'
125,31,5,1,0,1,0,0,0,1,0,1,0,'Monteria'
125,30,5,1,0,0,0,0,0,1,0,0,1,'Monteria'
110,31,4,1,0,1,0,0,0,0,0,1,1,'Monteria'
130,29,6,0,0,0,0,0,0,0,0,1,0,'Monteria'
115,32,5,1,0,1,0,0,0,1,0,0,1,'Monteria'
125,34,5,0,0,0,0,0,0,1,0,1,1,'Monteria'
128,30,3,1,0,1,0,0,0,1,0,1,1,'Monteria'
109,31,6,1,0,0,0,0,0,1,0,0,1,'Monteria'
130,29,5,0,0,1,0,0,0,1,0,1,0,'Monteria'
115,30,4,1,0,1,0,0,0,0,0,1,1,'Monteria'
123,31,5,1,0,0,0,0,0,1,0,0,1,'Monteria'
120,30,5,0,0,1,0,0,0,1,0,1,1,'Monteria'
110,34,4,1,0,1,0,0,0,1,0,1,1,'Monteria'
130,29,5,1,0,1,0,0,0,1,0,1,0,'Monteria'
115,30,4,1,0,1,0,0,0,1,0,1,1,'Monteria'
125,31,5,1,0,0,0,0,0,1,0,0,1,'Monteria'
120,35,5,0,0,1,0,0,0,1,0,1,1,'Monteria'
113,31,3,1,0,0,0,0,0,0,0,0,1,'Monteria'
130,29,5,1,0,0,0,0,0,0,0,1,0,'Monteria'
115,30,4,0,0,1,0,0,0,0,0,0,1,'Monteria'
125,31,3,1,0,1,0,0,0,0,0,1,0,'Monteria'
120,30,5,1,0,0,0,0,0,1,0,1,1,'Monteria'
110,32,4,0,0,0,0,0,0,0,0,0,1,'Monteria'
130,29,5,1,0,1,0,0,0,1,0,1,0,'Monteria'
118,30,4,0,0,1,0,0,0,1,0,1,1,'Monteria'
125,31,5,1,0,1,0,0,0,1,0,1,1,'Monteria'
121,30,6,1,0,1,0,0,0,1,0,1,0,'Monteria'
110,35,4,1,0,1,0,0,0,1,0,1,0,'Monteria'
130,29,5,0,0,1,0,0,0,1,0,1,1,'Monteria'
115,30,4,1,0,0,0,0,0,0,0,0,1,'Monteria'
125,31,5,1,0,1,0,0,0,1,0,1,0,'Monteria'
125,30,5,1,0,0,0,0,0,1,0,0,1,'Monteria'
110,31,4,1,0,1,0,0,0,0,0,1,1,'Monteria'
130,29,6,0,0,0,0,0,0,0,0,1,0,'Monteria'
115,32,5,1,0,1,0,0,0,1,0,0,1,'Monteria'
125,34,5,0,0,0,0,0,0,1,0,1,1,'Monteria'
128,30,3,1,0,1,0,0,0,1,0,1,1,'Monteria'
109,31,6,1,0,0,0,0,0,1,0,0,1,'Monteria'
130,29,5,0,0,1,0,0,0,1,0,1,0,'Monteria'
115,30,4,1,0,1,0,0,0,0,0,1,1,'Monteria'
123,31,5,1,0,0,0,0,0,1,0,0,1,'Monteria'
120,30,5,0,0,1,0,0,0,1,0,1,1,'Monteria'
110,34,4,1,0,1,0,0,0,1,0,1,1,'Monteria'
130,29,5,1,0,1,0,0,0,1,0,1,0,'Monteria'
115,30,4,1,0,1,0,0,0,1,0,1,1,'Monteria'
125,31,5,1,0,0,0,0,0,1,0,0,1,'Monteria'
120,35,5,0,0,1,0,0,0,1,0,1,1,'Monteria'
113,31,3,1,0,0,0,0,0,0,0,0,1,'Monteria'
130,29,5,1,0,0,0,0,0,0,0,1,0,'Monteria'
115,30,4,0,0,1,0,0,0,0,0,0,1,'Monteria'
125,31,3,1,0,1,0,0,0,0,0,1,0,'Monteria'
120,30,5,1,0,0,0,0,0,1,0,1,1,'Monteria'
110,32,4,0,0,0,0,0,0,0,0,0,1,'Monteria'
130,29,5,1,0,1,0,0,0,1,0,1,0,'Monteria'
118,30,4,0,0,1,0,0,0,1,0,1,1,'Monteria'
125,31,5,1,0,1,0,0,0,1,0,1,1,'Monteria'
121,30,6,1,0,1,0,0,0,1,0,1,0,'Monteria'
110,35,4,1,0,1,0,0,0,1,0,1,0,'Monteria'
130,29,5,0,0,1,0,0,0,1,0,1,1,'Monteria'
115,30,4,1,0,0,0,0,0,0,0,0,1,'Monteria'
125,31,5,1,0,1,0,0,0,1,0,1,0,'Monteria'
125,30,5,1,0,0,0,0,0,1,0,0,1,'Monteria'
110,31,4,1,0,1,0,0,0,0,0,1,1,'Monteria'
130,29,6,0,0,0,0,0,0,0,0,1,0,'Monteria'
115,32,5,1,0,1,0,0,0,1,0,0,1,'Monteria'
125,34,5,0,0,0,0,0,0,1,0,1,1,'Monteria'
132,22,6,0,1,0,0,0,0,0,0,0,1,'Pereira'
148,21,4,0,1,0,0,0,0,1,0,1,1,'Pereira'
120,23,6,0,1,0,0,0,0,0,0,1,0,'Pereira'
151,20,7,0,1,0,0,0,0,1,0,0,1,'Pereira'
122,22,6,0,1,0,0,0,0,1,0,0,1,'Pereira'
136,24,6,0,1,0,0,0,0,0,0,1,1,'Pereira'
140,21,5,0,1,0,0,0,0,1,0,0,1,'Pereira'
122,23,6,0,1,0,0,0,0,0,0,1,1,'Pereira'
154,20,5,0,1,0,0,0,0,1,0,1,0,'Pereira'
116,22,6,0,1,0,0,0,0,1,0,0,0,'Pereira'
130,22,6,0,1,0,0,0,0,0,0,1,0,'Pereira'
140,21,5,0,1,0,0,0,0,1,0,1,1,'Pereira'
120,23,6,0,1,0,0,0,0,0,0,1,1,'Pereira'
150,20,5,0,1,0,0,0,0,1,0,1,0,'Pereira'
110,22,6,0,1,0,0,0,0,1,0,0,0,'Pereira'
132,22,6,0,1,0,0,0,0,0,0,1,1,'Pereira'
148,21,5,0,1,0,0,0,0,1,0,1,0,'Pereira'
120,23,6,0,1,0,0,0,0,0,0,0,1,'Pereira'
150,20,5,0,1,0,0,0,0,1,0,0,1,'Pereira'
110,23,7,0,1,0,0,0,0,0,0,1,0,'Pereira'
139,22,6,0,1,0,0,0,0,1,0,0,1,'Pereira'
140,21,5,0,1,0,0,0,0,1,0,1,1,'Pereira'
120,23,6,0,1,0,0,0,0,0,0,1,1,'Pereira'
150,20,5,0,1,0,0,0,0,1,0,1,0,'Pereira'
111,22,4,0,1,0,0,0,0,0,0,1,1,'Pereira'
130,22,6,0,1,0,0,0,0,1,0,0,1,'Pereira'
140,21,5,0,1,0,0,0,0,1,0,1,1,'Pereira'
120,26,6,0,1,0,0,0,0,0,0,1,0,'Pereira'
153,20,5,0,1,0,0,0,0,1,0,0,1,'Pereira'
110,22,6,0,1,0,0,0,0,1,0,1,0,'Pereira'
132,22,6,0,1,0,0,0,0,0,0,0,1,'Pereira'
148,21,4,0,1,0,0,0,0,1,0,1,1,'Pereira'
120,23,6,0,1,0,0,0,0,0,0,1,0,'Pereira'
151,20,7,0,1,0,0,0,0,1,0,0,1,'Pereira'
122,22,6,0,1,0,0,0,0,1,0,0,1,'Pereira'
136,24,6,0,1,0,0,0,0,0,0,1,1,'Pereira'
140,21,5,0,1,0,0,0,0,1,0,0,1,'Pereira'
122,23,6,0,1,0,0,0,0,0,0,1,1,'Pereira'
154,20,5,0,1,0,0,0,0,1,0,1,0,'Pereira'
116,22,6,0,1,0,0,0,0,1,0,0,0,'Pereira'
130,22,6,0,1,0,0,0,0,0,0,1,0,'Pereira'
140,21,5,0,1,0,0,0,0,1,0,1,1,'Pereira'
120,23,6,0,1,0,0,0,0,0,0,1,1,'Pereira'
150,20,5,0,1,0,0,0,0,1,0,1,0,'Pereira'
110,22,6,0,1,0,0,0,0,1,0,0,0,'Pereira'
132,22,6,0,1,0,0,0,0,0,0,1,1,'Pereira'
148,21,5,0,1,0,0,0,0,1,0,1,0,'Pereira'
120,23,6,0,1,0,0,0,0,0,0,0,1,'Pereira'
150,20,5,0,1,0,0,0,0,1,0,0,1,'Pereira'
110,23,7,0,1,0,0,0,0,0,0,1,0,'Pereira'
139,22,6,0,1,0,0,0,0,1,0,0,1,'Pereira'
140,21,5,0,1,0,0,0,0,1,0,1,1,'Pereira'
120,23,6,0,1,0,0,0,0,0,0,1,1,'Pereira'
150,20,5,0,1,0,0,0,0,1,0,1,0,'Pereira'
111,22,4,0,1,0,0,0,0,0,0,1,1,'Pereira'
130,22,6,0,1,0,0,0,0,1,0,0,1,'Pereira'
140,21,5,0,1,0,0,0,0,1,0,1,1,'Pereira'
120,26,6,0,1,0,0,0,0,0,0,1,0,'Pereira'
153,20,5,0,1,0,0,0,0,1,0,0,1,'Pereira'
110,22,6,0,1,0,0,0,0,1,0,1,0,'Pereira'
132,22,6,0,1,0,0,0,0,0,0,0,1,'Pereira'
148,21,4,0,1,0,0,0,0,1,0,1,1,'Pereira'
120,23,6,0,1,0,0,0,0,0,0,1,0,'Pereira'
151,20,7,0,1,0,0,0,0,1,0,0,1,'Pereira'
122,22,6,0,1,0,0,0,0,1,0,0,1,'Pereira'
136,24,6,0,1,0,0,0,0,0,0,1,1,'Pereira'
140,21,5,0,1,0,0,0,0,1,0,0,1,'Pereira'
122,23,6,0,1,0,0,0,0,0,0,1,1,'Pereira'
154,20,5,0,1,0,0,0,0,1,0,1,0,'Pereira'
116,22,6,0,1,0,0,0,0,1,0,0,0,'Pereira'
130,22,6,0,1,0,0,0,0,0,0,1,0,'Pereira'
140,21,5,0,1,0,0,0,0,1,0,1,1,'Pereira'
120,23,6,0,1,0,0,0,0,0,0,1,1,'Pereira'
150,20,5,0,1,0,0,0,0,1,0,1,0,'Pereira'
110,22,6,0,1,0,0,0,0,1,0,0,0,'Pereira'
132,22,6,0,1,0,0,0,0,0,0,1,1,'Pereira'
148,21,5,0,1,0,0,0,0,1,0,1,0,'Pereira'
120,23,6,0,1,0,0,0,0,0,0,0,1,'Pereira'
150,20,5,0,1,0,0,0,0,1,0,0,1,'Pereira'
110,23,7,0,1,0,0,0,0,0,0,1,0,'Pereira'
139,22,6,0,1,0,0,0,0,1,0,0,1,'Pereira'
140,21,5,0,1,0,0,0,0,1,0,1,1,'Pereira'
120,23,6,0,1,0,0,0,0,0,0,1,1,'Pereira'
150,20,5,0,1,0,0,0,0,1,0,1,0,'Pereira'
111,22,4,0,1,0,0,0,0,0,0,1,1,'Pereira'
130,22,6,0,1,0,0,0,0,1,0,0,1,'Pereira'
140,21,5,0,1,0,0,0,0,1,0,1,1,'Pereira'
120,26,6,0,1,0,0,0,0,0,0,1,0,'Pereira'
153,20,5,0,1,0,0,0,0,1,0,0,1,'Pereira'
110,22,6,0,1,0,0,0,0,1,0,1,0,'Pereira'
146,25,5,0,1,0,0,0,1,1,1,0,1,'Cali'
132,29,6,0,1,0,0,0,1,1,1,0,1,'Cali'
150,27,7,0,1,0,0,0,1,1,1,0,1,'Cali'
126,28,6,0,1,0,0,0,1,1,1,0,1,'Cali'
160,26,7,0,1,0,0,0,1,1,1,0,1,'Cali'
141,28,8,0,1,0,0,0,1,1,1,0,1,'Cali'
130,25,6,0,1,0,0,0,1,1,1,0,1,'Cali'
149,39,7,0,1,0,0,0,1,1,1,0,1,'Cali'
125,28,6,0,1,0,0,0,1,1,1,0,1,'Cali'
162,26,7,0,1,0,0,0,1,1,1,0,1,'Cali'
140,28,7,0,1,0,0,0,1,1,1,0,1,'Cali'
130,29,6,0,1,0,0,0,1,1,1,0,1,'Cali'
150,27,7,0,1,0,0,0,1,1,1,0,1,'Cali'
120,28,6,0,1,0,0,0,1,1,1,0,1,'Cali'
160,26,7,0,1,0,0,0,1,1,1,0,1,'Cali'
142,28,7,0,1,0,0,0,1,1,1,0,1,'Cali'
134,29,6,0,1,0,0,0,1,1,1,0,1,'Cali'
152,27,7,0,1,0,0,0,1,1,1,0,1,'Cali'
120,28,6,0,1,0,0,0,1,1,1,0,1,'Cali'
160,30,5,0,1,0,0,0,1,1,1,0,1,'Cali'
145,28,7,0,1,0,0,0,1,1,1,0,1,'Cali'
137,29,6,0,1,0,0,0,1,1,1,0,1,'Cali'
150,27,7,0,1,0,0,0,1,1,1,0,1,'Cali'
129,28,6,0,1,0,0,0,1,1,1,0,1,'Cali'
163,26,7,0,1,0,0,0,1,1,1,0,1,'Cali'
140,28,5,0,1,0,0,0,1,1,1,0,1,'Cali'
130,30,6,0,1,0,0,0,1,1,1,0,1,'Cali'
151,27,7,0,1,0,0,0,1,1,1,0,1,'Cali'
122,28,6,0,1,0,0,0,1,1,1,0,1,'Cali'
160,26,8,0,1,0,0,0,1,1,1,0,1,'Cali'
146,25,5,0,1,0,0,0,1,1,1,0,1,'Cali'
132,29,6,0,1,0,0,0,1,1,1,0,1,'Cali'
150,27,7,0,1,0,0,0,1,1,1,0,1,'Cali'
126,28,6,0,1,0,0,0,1,1,1,0,1,'Cali'
160,26,7,0,1,0,0,0,1,1,1,0,1,'Cali'
141,28,8,0,1,0,0,0,1,1,1,0,1,'Cali'
130,25,6,0,1,0,0,0,1,1,1,0,1,'Cali'
149,39,7,0,1,0,0,0,1,1,1,0,1,'Cali'
125,28,6,0,1,0,0,0,1,1,1,0,1,'Cali'
162,26,7,0,1,0,0,0,1,1,1,0,1,'Cali'
140,28,7,0,1,0,0,0,1,1,1,0,1,'Cali'
130,29,6,0,1,0,0,0,1,1,1,0,1,'Cali'
150,27,7,0,1,0,0,0,1,1,1,0,1,'Cali'
120,28,6,0,1,0,0,0,1,1,1,0,1,'Cali'
160,26,7,0,1,0,0,0,1,1,1,0,1,'Cali'
142,28,7,0,1,0,0,0,1,1,1,0,1,'Cali'
134,29,6,0,1,0,0,0,1,1,1,0,1,'Cali'
152,27,7,0,1,0,0,0,1,1,1,0,1,'Cali'
120,28,6,0,1,0,0,0,1,1,1,0,1,'Cali'
160,30,5,0,1,0,0,0,1,1,1,0,1,'Cali'
145,28,7,0,1,0,0,0,1,1,1,0,1,'Cali'
137,29,6,0,1,0,0,0,1,1,1,0,1,'Cali'
150,27,7,0,1,0,0,0,1,1,1,0,1,'Cali'
129,28,6,0,1,0,0,0,1,1,1,0,1,'Cali'
163,26,7,0,1,0,0,0,1,1,1,0,1,'Cali'
140,28,5,0,1,0,0,0,1,1,1,0,1,'Cali'
130,30,6,0,1,0,0,0,1,1,1,0,1,'Cali'
151,27,7,0,1,0,0,0,1,1,1,0,1,'Cali'
122,28,6,0,1,0,0,0,1,1,1,0,1,'Cali'
160,26,8,0,1,0,0,0,1,1,1,0,1,'Cali'
146,25,5,0,1,0,0,0,1,1,1,0,1,'Cali'
132,29,6,0,1,0,0,0,1,1,1,0,1,'Cali'
150,27,7,0,1,0,0,0,1,1,1,0,1,'Cali'
126,28,6,0,1,0,0,0,1,1,1,0,1,'Cali'
160,26,7,0,1,0,0,0,1,1,1,0,1,'Cali'
141,28,8,0,1,0,0,0,1,1,1,0,1,'Cali'
130,25,6,0,1,0,0,0,1,1,1,0,1,'Cali'
149,39,7,0,1,0,0,0,1,1,1,0,1,'Cali'
125,28,6,0,1,0,0,0,1,1,1,0,1,'Cali'
162,26,7,0,1,0,0,0,1,1,1,0,1,'Cali'
140,28,7,0,1,0,0,0,1,1,1,0,1,'Cali'
130,29,6,0,1,0,0,0,1,1,1,0,1,'Cali'
150,27,7,0,1,0,0,0,1,1,1,0,1,'Cali'
120,28,6,0,1,0,0,0,1,1,1,0,1,'Cali'
160,26,7,0,1,0,0,0,1,1,1,0,1,'Cali'
142,28,7,0,1,0,0,0,1,1,1,0,1,'Cali'
134,29,6,0,1,0,0,0,1,1,1,0,1,'Cali'
152,27,7,0,1,0,0,0,1,1,1,0,1,'Cali'
120,28,6,0,1,0,0,0,1,1,1,0,1,'Cali'
160,30,5,0,1,0,0,0,1,1,1,0,1,'Cali'
145,28,7,0,1,0,0,0,1,1,1,0,1,'Cali'
137,29,6,0,1,0,0,0,1,1,1,0,1,'Cali'
150,27,7,0,1,0,0,0,1,1,1,0,1,'Cali'
129,28,6,0,1,0,0,0,1,1,1,0,1,'Cali'
163,26,7,0,1,0,0,0,1,1,1,0,1,'Cali'
140,28,5,0,1,0,0,0,1,1,1,0,1,'Cali'
130,30,6,0,1,0,0,0,1,1,1,0,1,'Cali'
151,27,7,0,1,0,0,0,1,1,1,0,1,'Cali'
122,28,6,0,1,0,0,0,1,1,1,0,1,'Cali'
160,26,8,0,1,0,0,0,1,1,1,0,1,'Cali'
75,33,8,1,0,0,0,0,1,1,1,0,0,'Barranquilla'
82,32,5,1,0,0,0,0,0,1,1,0,0,'Barranquilla'
65,34,6,1,0,0,0,0,1,0,1,0,0,'Barranquilla'
75,33,5,1,0,0,0,0,1,0,1,0,0,'Barranquilla'
85,31,6,1,0,0,0,0,1,1,1,0,0,'Barranquilla'
70,33,7,1,0,0,0,0,0,0,1,0,0,'Barranquilla'
86,32,5,1,0,0,0,0,1,1,0,0,0,'Barranquilla'
65,34,6,1,0,0,0,0,0,0,1,0,0,'Barranquilla'
78,33,5,1,0,0,0,0,1,0,1,0,0,'Barranquilla'
85,31,6,1,0,0,0,0,1,1,0,0,0,'Barranquilla'
70,33,6,1,0,0,0,0,0,0,1,0,0,'Barranquilla'
81,32,5,1,0,0,0,0,1,1,1,0,0,'Barranquilla'
62,34,6,1,0,0,0,0,1,0,1,0,0,'Barranquilla'
75,33,5,1,0,0,0,0,1,1,1,0,0,'Barranquilla'
85,31,6,1,0,0,0,0,1,1,0,0,0,'Barranquilla'
70,33,6,1,0,0,0,0,0,1,1,0,0,'Barranquilla'
82,32,5,1,0,0,0,0,0,1,1,0,0,'Barranquilla'
65,34,6,1,0,0,0,0,1,0,0,0,0,'Barranquilla'
78,33,5,1,0,0,0,0,0,0,1,0,0,'Barranquilla'
85,31,4,1,0,0,0,0,1,1,1,0,0,'Barranquilla'
70,33,6,1,0,0,0,0,0,1,1,0,0,'Barranquilla'
81,32,5,1,0,0,0,0,1,1,1,0,0,'Barranquilla'
65,34,6,1,0,0,0,0,1,0,1,0,0,'Barranquilla'
72,33,5,1,0,0,0,0,1,0,1,0,0,'Barranquilla'
69,31,6,1,0,0,0,0,1,1,1,0,0,'Barranquilla'
71,33,6,1,0,0,0,0,0,0,1,0,0,'Barranquilla'
86,32,4,1,0,0,0,0,1,1,1,0,0,'Barranquilla'
59,34,6,1,0,0,0,0,0,1,1,0,0,'Barranquilla'
75,33,5,1,0,0,0,0,1,0,0,0,0,'Barranquilla'
85,31,6,1,0,0,0,0,1,1,0,0,0,'Barranquilla'
75,33,8,1,0,0,0,0,1,1,1,0,0,'Barranquilla'
82,32,5,1,0,0,0,0,0,1,1,0,0,'Barranquilla'
65,34,6,1,0,0,0,0,1,0,1,0,0,'Barranquilla'
75,33,5,1,0,0,0,0,1,0,1,0,0,'Barranquilla'
85,31,6,1,0,0,0,0,1,1,1,0,0,'Barranquilla'
70,33,7,1,0,0,0,0,0,0,1,0,0,'Barranquilla'
86,32,5,1,0,0,0,0,1,1,0,0,0,'Barranquilla'
65,34,6,1,0,0,0,0,0,0,1,0,0,'Barranquilla'
78,33,5,1,0,0,0,0,1,0,1,0,0,'Barranquilla'
85,31,6,1,0,0,0,0,1,1,0,0,0,'Barranquilla'
70,33,6,1,0,0,0,0,0,0,1,0,0,'Barranquilla'
81,32,5,1,0,0,0,0,1,1,1,0,0,'Barranquilla'
62,34,6,1,0,0,0,0,1,0,1,0,0,'Barranquilla'
75,33,5,1,0,0,0,0,1,1,1,0,0,'Barranquilla'
85,31,6,1,0,0,0,0,1,1,0,0,0,'Barranquilla'
70,33,6,1,0,0,0,0,0,1,1,0,0,'Barranquilla'
82,32,5,1,0,0,0,0,0,1,1,0,0,'Barranquilla'
65,34,6,1,0,0,0,0,1,0,0,0,0,'Barranquilla'
78,33,5,1,0,0,0,0,0,0,1,0,0,'Barranquilla'
85,31,4,1,0,0,0,0,1,1,1,0,0,'Barranquilla'
70,33,6,1,0,0,0,0,0,1,1,0,0,'Barranquilla'
81,32,5,1,0,0,0,0,1,1,1,0,0,'Barranquilla'
65,34,6,1,0,0,0,0,1,0,1,0,0,'Barranquilla'
72,33,5,1,0,0,0,0,1,0,1,0,0,'Barranquilla'
69,31,6,1,0,0,0,0,1,1,1,0,0,'Barranquilla'
71,33,6,1,0,0,0,0,0,0,1,0,0,'Barranquilla'
86,32,4,1,0,0,0,0,1,1,1,0,0,'Barranquilla'
59,34,6,1,0,0,0,0,0,1,1,0,0,'Barranquilla'
75,33,5,1,0,0,0,0,1,0,0,0,0,'Barranquilla'
85,31,6,1,0,0,0,0,1,1,0,0,0,'Barranquilla'
75,33,8,1,0,0,0,0,1,1,1,0,0,'Barranquilla'
82,32,5,1,0,0,0,0,0,1,1,0,0,'Barranquilla'
65,34,6,1,0,0,0,0,1,0,1,0,0,'Barranquilla'
75,33,5,1,0,0,0,0,1,0,1,0,0,'Barranquilla'
85,31,6,1,0,0,0,0,1,1,1,0,0,'Barranquilla'
70,33,7,1,0,0,0,0,0,0,1,0,0,'Barranquilla'
86,32,5,1,0,0,0,0,1,1,0,0,0,'Barranquilla'
65,34,6,1,0,0,0,0,0,0,1,0,0,'Barranquilla'
78,33,5,1,0,0,0,0,1,0,1,0,0,'Barranquilla'
85,31,6,1,0,0,0,0,1,1,0,0,0,'Barranquilla'
70,33,6,1,0,0,0,0,0,0,1,0,0,'Barranquilla'
81,32,5,1,0,0,0,0,1,1,1,0,0,'Barranquilla'
62,34,6,1,0,0,0,0,1,0,1,0,0,'Barranquilla'
75,33,5,1,0,0,0,0,1,1,1,0,0,'Barranquilla'
85,31,6,1,0,0,0,0,1,1,0,0,0,'Barranquilla'
70,33,6,1,0,0,0,0,0,1,1,0,0,'Barranquilla'
82,32,5,1,0,0,0,0,0,1,1,0,0,'Barranquilla'
65,34,6,1,0,0,0,0,1,0,0,0,0,'Barranquilla'
78,33,5,1,0,0,0,0,0,0,1,0,0,'Barranquilla'
85,31,4,1,0,0,0,0,1,1,1,0,0,'Barranquilla'
70,33,6,1,0,0,0,0,0,1,1,0,0,'Barranquilla'
81,32,5,1,0,0,0,0,1,1,1,0,0,'Barranquilla'
65,34,6,1,0,0,0,0,1,0,1,0,0,'Barranquilla'
72,33,5,1,0,0,0,0,1,0,1,0,0,'Barranquilla'
69,31,6,1,0,0,0,0,1,1,1,0,0,'Barranquilla'
71,33,6,1,0,0,0,0,0,0,1,0,0,'Barranquilla'
86,32,4,1,0,0,0,0,1,1,1,0,0,'Barranquilla'
59,34,6,1,0,0,0,0,0,1,1,0,0,'Barranquilla'
75,33,5,1,0,0,0,0,1,0,0,0,0,'Barranquilla'
85,31,6,1,0,0,0,0,1,1,0,0,0,'Barranquilla'
221,14,5,0,1,1,0,0,1,0,0,1,1,'Narino'
238,13,4,0,1,1,0,0,1,0,0,1,1,'Narino'
201,15,5,0,1,1,0,0,1,0,0,1,1,'Narino'
230,14,4,0,1,1,0,0,1,0,0,1,1,'Narino'
210,16,5,0,1,1,0,0,1,0,0,1,1,'Narino'
223,14,5,0,1,1,0,0,1,0,0,1,1,'Narino'
240,13,4,0,1,1,0,0,1,0,0,1,1,'Narino'
200,15,5,0,1,1,0,0,1,0,0,1,1,'Narino'
230,14,4,0,1,1,0,0,1,0,0,1,1,'Narino'
210,16,6,0,1,1,0,0,1,0,0,1,1,'Narino'
220,14,5,0,1,1,0,0,1,0,0,1,1,'Narino'
248,13,4,0,1,1,0,0,1,0,0,1,1,'Narino'
214,15,5,0,1,1,0,0,1,0,0,1,1,'Narino'
230,14,4,0,1,1,0,0,1,0,0,1,1,'Narino'
210,16,5,0,1,1,0,0,1,0,0,1,1,'Narino'
228,14,5,0,1,1,0,0,1,0,0,1,1,'Narino'
241,13,4,0,1,1,0,0,1,0,0,1,1,'Narino'
206,15,5,0,1,1,0,0,1,0,0,1,1,'Narino'
230,14,4,0,1,1,0,0,1,0,0,1,1,'Narino'
213,16,5,0,1,1,0,0,1,0,0,1,1,'Narino'
223,14,5,0,1,1,0,0,1,0,0,1,1,'Narino'
240,13,4,0,1,1,0,0,1,0,0,1,1,'Narino'
204,15,5,0,1,1,0,0,1,0,0,1,1,'Narino'
230,14,4,0,1,1,0,0,1,0,0,1,1,'Narino'
210,16,5,0,1,1,0,0,1,0,0,1,1,'Narino'
220,14,5,0,1,1,0,0,1,0,0,1,1,'Narino'
240,13,4,0,1,1,0,0,1,0,0,1,1,'Narino'
209,15,5,0,1,1,0,0,1,0,0,1,1,'Narino'
232,14,4,0,1,1,0,0,1,0,0,1,1,'Narino'
215,16,6,0,1,1,0,0,1,0,0,1,1,'Narino'
221,14,5,0,1,1,0,0,1,0,0,1,1,'Narino'
238,13,4,0,1,1,0,0,1,0,0,1,1,'Narino'
201,15,5,0,1,1,0,0,1,0,0,1,1,'Narino'
230,14,4,0,1,1,0,0,1,0,0,1,1,'Narino'
210,16,5,0,1,1,0,0,1,0,0,1,1,'Narino'
223,14,5,0,1,1,0,0,1,0,0,1,1,'Narino'
240,13,4,0,1,1,0,0,1,0,0,1,1,'Narino'
200,15,5,0,1,1,0,0,1,0,0,1,1,'Narino'
230,14,4,0,1,1,0,0,1,0,0,1,1,'Narino'
210,16,6,0,1,1,0,0,1,0,0,1,1,'Narino'
220,14,5,0,1,1,0,0,1,0,0,1,1,'Narino'
248,13,4,0,1,1,0,0,1,0,0,1,1,'Narino'
214,15,5,0,1,1,0,0,1,0,0,1,1,'Narino'
230,14,4,0,1,1,0,0,1,0,0,1,1,'Narino'
210,16,5,0,1,1,0,0,1,0,0,1,1,'Narino'
228,14,5,0,1,1,0,0,1,0,0,1,1,'Narino'
241,13,4,0,1,1,0,0,1,0,0,1,1,'Narino'
206,15,5,0,1,1,0,0,1,0,0,1,1,'Narino'
230,14,4,0,1,1,0,0,1,0,0,1,1,'Narino'
213,16,5,0,1,1,0,0,1,0,0,1,1,'Narino'
223,14,5,0,1,1,0,0,1,0,0,1,1,'Narino'
240,13,4,0,1,1,0,0,1,0,0,1,1,'Narino'
204,15,5,0,1,1,0,0,1,0,0,1,1,'Narino'
230,14,4,0,1,1,0,0,1,0,0,1,1,'Narino'
210,16,5,0,1,1,0,0,1,0,0,1,1,'Narino'
220,14,5,0,1,1,0,0,1,0,0,1,1,'Narino'
240,13,4,0,1,1,0,0,1,0,0,1,1,'Narino'
209,15,5,0,1,1,0,0,1,0,0,1,1,'Narino'
232,14,4,0,1,1,0,0,1,0,0,1,1,'Narino'
215,16,6,0,1,1,0,0,1,0,0,1,1,'Narino'
221,14,5,0,1,1,0,0,1,0,0,1,1,'Narino'
238,13,4,0,1,1,0,0,1,0,0,1,1,'Narino'
201,15,5,0,1,1,0,0,1,0,0,1,1,'Narino'
230,14,4,0,1,1,0,0,1,0,0,1,1,'Narino'
210,16,5,0,1,1,0,0,1,0,0,1,1,'Narino'
223,14,5,0,1,1,0,0,1,0,0,1,1,'Narino'
240,13,4,0,1,1,0,0,1,0,0,1,1,'Narino'
200,15,5,0,1,1,0,0,1,0,0,1,1,'Narino'
230,14,4,0,1,1,0,0,1,0,0,1,1,'Narino'
210,16,6,0,1,1,0,0,1,0,0,1,1,'Narino'
220,14,5,0,1,1,0,0,1,0,0,1,1,'Narino'
248,13,4,0,1,1,0,0,1,0,0,1,1,'Narino'
214,15,5,0,1,1,0,0,1,0,0,1,1,'Narino'
230,14,4,0,1,1,0,0,1,0,0,1,1,'Narino'
210,16,5,0,1,1,0,0,1,0,0,1,1,'Narino'
228,14,5,0,1,1,0,0,1,0,0,1,1,'Narino'
241,13,4,0,1,1,0,0,1,0,0,1,1,'Narino'
206,15,5,0,1,1,0,0,1,0,0,1,1,'Narino'
230,14,4,0,1,1,0,0,1,0,0,1,1,'Narino'
213,16,5,0,1,1,0,0,1,0,0,1,1,'Narino'
223,14,5,0,1,1,0,0,1,0,0,1,1,'Narino'
240,13,4,0,1,1,0,0,1,0,0,1,1,'Narino'
204,15,5,0,1,1,0,0,1,0,0,1,1,'Narino'
230,14,4,0,1,1,0,0,1,0,0,1,1,'Narino'
210,16,5,0,1,1,0,0,1,0,0,1,1,'Narino'
220,14,5,0,1,1,0,0,1,0,0,1,1,'Narino'
240,13,4,0,1,1,0,0,1,0,0,1,1,'Narino'
209,15,5,0,1,1,0,0,1,0,0,1,1,'Narino'
232,14,4,0,1,1,0,0,1,0,0,1,1,'Narino'
215,16,6,0,1,1,0,0,1,0,0,1,1,'Narino'
165,28,5,0,1,0,0,0,0,1,0,0,1,'Bucaramanga'
170,27,6,0,1,0,0,0,0,1,0,1,1,'Bucaramanga'
150,29,5,0,1,0,0,0,0,0,0,1,1,'Bucaramanga'
183,26,4,0,1,0,0,0,0,1,0,1,0,'Bucaramanga'
149,28,5,0,1,0,0,0,0,1,0,1,0,'Bucaramanga'
160,28,5,0,1,0,0,0,0,0,0,1,1,'Bucaramanga'
170,27,6,0,1,0,0,0,0,1,0,1,1,'Bucaramanga'
153,29,5,0,1,0,0,0,0,1,0,0,1,'Bucaramanga'
180,26,4,0,1,0,0,0,0,1,0,0,1,'Bucaramanga'
145,28,5,0,1,0,0,0,0,0,0,1,1,'Bucaramanga'
161,28,5,0,1,0,0,0,0,1,0,1,1,'Bucaramanga'
175,27,6,0,1,0,0,0,0,0,0,1,1,'Bucaramanga'
156,29,5,0,1,0,0,0,0,1,0,1,1,'Bucaramanga'
180,26,4,0,1,0,0,0,0,0,0,1,1,'Bucaramanga'
142,28,5,0,1,0,0,0,0,1,0,1,1,'Bucaramanga'
160,28,5,0,1,0,0,0,0,0,0,0,1,'Bucaramanga'
170,27,6,0,1,0,0,0,0,1,0,1,0,'Bucaramanga'
150,29,5,0,1,0,0,0,0,0,0,0,1,'Bucaramanga'
186,26,4,0,1,0,0,0,0,1,0,1,1,'Bucaramanga'
140,28,5,0,1,0,0,0,0,1,0,0,0,'Bucaramanga'
160,28,5,0,1,0,0,0,0,1,0,1,1,'Bucaramanga'
174,27,6,0,1,0,0,0,0,1,0,1,1,'Bucaramanga'
156,29,5,0,1,0,0,0,0,1,0,1,1,'Bucaramanga'
188,26,4,0,1,0,0,0,0,0,0,1,1,'Bucaramanga'
146,28,5,0,1,0,0,0,0,1,0,1,1,'Bucaramanga'
163,28,5,0,1,0,0,0,0,1,0,1,1,'Bucaramanga'
171,27,6,0,1,0,0,0,0,0,0,1,0,'Bucaramanga'
157,29,5,0,1,0,0,0,0,1,0,1,1,'Bucaramanga'
180,26,4,0,1,0,0,0,0,0,0,1,1,'Bucaramanga'
140,28,5,0,1,0,0,0,0,0,0,1,1,'Bucaramanga'
165,28,5,0,1,0,0,0,0,1,0,0,1,'Bucaramanga'
170,27,6,0,1,0,0,0,0,1,0,1,1,'Bucaramanga'
150,29,5,0,1,0,0,0,0,0,0,1,1,'Bucaramanga'
183,26,4,0,1,0,0,0,0,1,0,1,0,'Bucaramanga'
149,28,5,0,1,0,0,0,0,1,0,1,0,'Bucaramanga'
160,28,5,0,1,0,0,0,0,0,0,1,1,'Bucaramanga'
170,27,6,0,1,0,0,0,0,1,0,1,1,'Bucaramanga'
153,29,5,0,1,0,0,0,0,1,0,0,1,'Bucaramanga'
180,26,4,0,1,0,0,0,0,1,0,0,1,'Bucaramanga'
145,28,5,0,1,0,0,0,0,0,0,1,1,'Bucaramanga'
161,28,5,0,1,0,0,0,0,1,0,1,1,'Bucaramanga'
175,27,6,0,1,0,0,0,0,0,0,1,1,'Bucaramanga'
156,29,5,0,1,0,0,0,0,1,0,1,1,'Bucaramanga'
180,26,4,0,1,0,0,0,0,0,0,1,1,'Bucaramanga'
142,28,5,0,1,0,0,0,0,1,0,1,1,'Bucaramanga'
160,28,5,0,1,0,0,0,0,0,0,0,1,'Bucaramanga'
170,27,6,0,1,0,0,0,0,1,0,1,0,'Bucaramanga'
150,29,5,0,1,0,0,0,0,0,0,0,1,'Bucaramanga'
186,26,4,0,1,0,0,0,0,1,0,1,1,'Bucaramanga'
140,28,5,0,1,0,0,0,0,1,0,0,0,'Bucaramanga'
160,28,5,0,1,0,0,0,0,1,0,1,1,'Bucaramanga'
174,27,6,0,1,0,0,0,0,1,0,1,1,'Bucaramanga'
156,29,5,0,1,0,0,0,0,1,0,1,1,'Bucaramanga'
188,26,4,0,1,0,0,0,0,0,0,1,1,'Bucaramanga'
146,28,5,0,1,0,0,0,0,1,0,1,1,'Bucaramanga'
163,28,5,0,1,0,0,0,0,1,0,1,1,'Bucaramanga'
171,27,6,0,1,0,0,0,0,0,0,1,0,'Bucaramanga'
157,29,5,0,1,0,0,0,0,1,0,1,1,'Bucaramanga'
180,26,4,0,1,0,0,0,0,0,0,1,1,'Bucaramanga'
140,28,5,0,1,0,0,0,0,0,0,1,1,'Bucaramanga'
165,28,5,0,1,0,0,0,0,1,0,0,1,'Bucaramanga'
170,27,6,0,1,0,0,0,0,1,0,1,1,'Bucaramanga'
150,29,5,0,1,0,0,0,0,0,0,1,1,'Bucaramanga'
183,26,4,0,1,0,0,0,0,1,0,1,0,'Bucaramanga'
149,28,5,0,1,0,0,0,0,1,0,1,0,'Bucaramanga'
160,28,5,0,1,0,0,0,0,0,0,1,1,'Bucaramanga'
170,27,6,0,1,0,0,0,0,1,0,1,1,'Bucaramanga'
153,29,5,0,1,0,0,0,0,1,0,0,1,'Bucaramanga'
180,26,4,0,1,0,0,0,0,1,0,0,1,'Bucaramanga'
145,28,5,0,1,0,0,0,0,0,0,1,1,'Bucaramanga'
161,28,5,0,1,0,0,0,0,1,0,1,1,'Bucaramanga'
175,27,6,0,1,0,0,0,0,0,0,1,1,'Bucaramanga'
156,29,5,0,1,0,0,0,0,1,0,1,1,'Bucaramanga'
180,26,4,0,1,0,0,0,0,0,0,1,1,'Bucaramanga'
142,28,5,0,1,0,0,0,0,1,0,1,1,'Bucaramanga'
160,28,5,0,1,0,0,0,0,0,0,0,1,'Bucaramanga'
170,27,6,0,1,0,0,0,0,1,0,1,0,'Bucaramanga'
150,29,5,0,1,0,0,0,0,0,0,0,1,'Bucaramanga'
186,26,4,0,1,0,0,0,0,1,0,1,1,'Bucaramanga'
140,28,5,0,1,0,0,0,0,1,0,0,0,'Bucaramanga'
160,28,5,0,1,0,0,0,0,1,0,1,1,'Bucaramanga'
174,27,6,0,1,0,0,0,0,1,0,1,1,'Bucaramanga'
156,29,5,0,1,0,0,0,0,1,0,1,1,'Bucaramanga'
188,26,4,0,1,0,0,0,0,0,0,1,1,'Bucaramanga'
146,28,5,0,1,0,0,0,0,1,0,1,1,'Bucaramanga'
163,28,5,0,1,0,0,0,0,1,0,1,1,'Bucaramanga'
171,27,6,0,1,0,0,0,0,0,0,1,0,'Bucaramanga'
157,29,5,0,1,0,0,0,0,1,0,1,1,'Bucaramanga'
180,26,4,0,1,0,0,0,0,0,0,1,1,'Bucaramanga'
140,28,5,0,1,0,0,0,0,0,0,1,1,'Bucaramanga'
123,23,5,0,1,1,0,0,0,0,0,0,1,'Armenia'
138,22,6,0,1,1,0,0,0,0,0,1,1,'Armenia'
116,24,5,0,0,1,0,0,0,0,0,1,0,'Armenia'
140,21,4,0,1,1,0,0,0,0,0,1,1,'Armenia'
106,23,5,0,1,0,0,0,0,0,0,1,0,'Armenia'
122,23,5,0,1,1,0,0,0,0,0,1,1,'Armenia'
138,22,6,0,1,1,0,0,0,0,0,0,1,'Armenia'
110,24,5,0,0,1,0,0,0,0,0,1,1,'Armenia'
140,21,4,0,1,1,0,0,0,0,0,0,1,'Armenia'
101,23,5,0,1,1,0,0,0,0,0,1,1,'Armenia'
128,23,5,0,0,1,0,0,0,0,0,1,0,'Armenia'
139,22,6,0,1,1,0,0,0,0,0,1,1,'Armenia'
110,24,5,0,1,1,0,0,0,0,0,1,1,'Armenia'
140,21,4,0,1,0,0,0,0,0,0,0,0,'Armenia'
103,23,5,0,1,1,0,0,0,0,0,1,1,'Armenia'
120,23,5,0,1,0,0,0,0,0,0,1,0,'Armenia'
130,22,6,0,1,1,0,0,0,0,0,1,1,'Armenia'
110,24,5,0,1,1,0,0,0,0,0,0,1,'Armenia'
142,21,4,0,0,1,0,0,0,0,0,1,1,'Armenia'
109,23,5,0,1,0,0,0,0,0,0,0,1,'Armenia'
120,23,5,0,0,1,0,0,0,0,0,1,0,'Armenia'
130,22,6,0,1,1,0,0,0,0,0,1,1,'Armenia'
110,24,5,0,1,0,0,0,0,0,0,0,1,'Armenia'
145,21,4,0,1,0,0,0,0,0,0,1,1,'Armenia'
108,23,5,0,1,1,0,0,0,0,0,0,1,'Armenia'
122,23,5,0,0,1,0,0,0,0,0,1,1,'Armenia'
137,22,6,0,1,1,0,0,0,0,0,1,1,'Armenia'
110,24,5,0,1,1,0,0,0,0,0,1,1,'Armenia'
141,21,4,0,0,1,0,0,0,0,0,1,0,'Armenia'
102,23,5,0,1,0,0,0,0,0,0,1,1,'Armenia'
123,23,5,0,1,1,0,0,0,0,0,0,1,'Armenia'
138,22,6,0,1,1,0,0,0,0,0,1,1,'Armenia'
116,24,5,0,0,1,0,0,0,0,0,1,0,'Armenia'
140,21,4,0,1,1,0,0,0,0,0,1,1,'Armenia'
106,23,5,0,1,0,0,0,0,0,0,1,0,'Armenia'
122,23,5,0,1,1,0,0,0,0,0,1,1,'Armenia'
138,22,6,0,1,1,0,0,0,0,0,0,1,'Armenia'
110,24,5,0,0,1,0,0,0,0,0,1,1,'Armenia'
140,21,4,0,1,1,0,0,0,0,0,0,1,'Armenia'
101,23,5,0,1,1,0,0,0,0,0,1,1,'Armenia'
128,23,5,0,0,1,0,0,0,0,0,1,0,'Armenia'
139,22,6,0,1,1,0,0,0,0,0,1,1,'Armenia'
110,24,5,0,1,1,0,0,0,0,0,1,1,'Armenia'
140,21,4,0,1,0,0,0,0,0,0,0,0,'Armenia'
103,23,5,0,1,1,0,0,0,0,0,1,1,'Armenia'
120,23,5,0,1,0,0,0,0,0,0,1,0,'Armenia'
130,22,6,0,1,1,0,0,0,0,0,1,1,'Armenia'
110,24,5,0,1,1,0,0,0,0,0,0,1,'Armenia'
142,21,4,0,0,1,0,0,0,0,0,1,1,'Armenia'
109,23,5,0,1,0,0,0,0,0,0,0,1,'Armenia'
120,23,5,0,0,1,0,0,0,0,0,1,0,'Armenia'
130,22,6,0,1,1,0,0,0,0,0,1,1,'Armenia'
110,24,5,0,1,0,0,0,0,0,0,0,1,'Armenia'
145,21,4,0,1,0,0,0,0,0,0,1,1,'Armenia'
108,23,5,0,1,1,0,0,0,0,0,0,1,'Armenia'
122,23,5,0,0,1,0,0,0,0,0,1,1,'Armenia'
137,22,6,0,1,1,0,0,0,0,0,1,1,'Armenia'
110,24,5,0,1,1,0,0,0,0,0,1,1,'Armenia'
141,21,4,0,0,1,0,0,0,0,0,1,0,'Armenia'
102,23,5,0,1,0,0,0,0,0,0,1,1,'Armenia'
123,23,5,0,1,1,0,0,0,0,0,0,1,'Armenia'
138,22,6,0,1,1,0,0,0,0,0,1,1,'Armenia'
116,24,5,0,0,1,0,0,0,0,0,1,0,'Armenia'
140,21,4,0,1,1,0,0,0,0,0,1,1,'Armenia'
106,23,5,0,1,0,0,0,0,0,0,1,0,'Armenia'
122,23,5,0,1,1,0,0,0,0,0,1,1,'Armenia'
138,22,6,0,1,1,0,0,0,0,0,0,1,'Armenia'
110,24,5,0,0,1,0,0,0,0,0,1,1,'Armenia'
140,21,4,0,1,1,0,0,0,0,0,0,1,'Armenia'
101,23,5,0,1,1,0,0,0,0,0,1,1,'Armenia'
128,23,5,0,0,1,0,0,0,0,0,1,0,'Armenia'
139,22,6,0,1,1,0,0,0,0,0,1,1,'Armenia'
110,24,5,0,1,1,0,0,0,0,0,1,1,'Armenia'
140,21,4,0,1,0,0,0,0,0,0,0,0,'Armenia'
103,23,5,0,1,1,0,0,0,0,0,1,1,'Armenia'
120,23,5,0,1,0,0,0,0,0,0,1,0,'Armenia'
130,22,6,0,1,1,0,0,0,0,0,1,1,'Armenia'
110,24,5,0,1,1,0,0,0,0,0,0,1,'Armenia'
142,21,4,0,0,1,0,0,0,0,0,1,1,'Armenia'
109,23,5,0,1,0,0,0,0,0,0,0,1,'Armenia'
120,23,5,0,0,1,0,0,0,0,0,1,0,'Armenia'
130,22,6,0,1,1,0,0,0,0,0,1,1,'Armenia'
110,24,5,0,1,0,0,0,0,0,0,0,1,'Armenia'
145,21,4,0,1,0,0,0,0,0,0,1,1,'Armenia'
108,23,5,0,1,1,0,0,0,0,0,0,1,'Armenia'
122,23,5,0,0,1,0,0,0,0,0,1,1,'Armenia'
137,22,6,0,1,1,0,0,0,0,0,1,1,'Armenia'
110,24,5,0,1,1,0,0,0,0,0,1,1,'Armenia'
141,21,4,0,0,1,0,0,0,0,0,1,0,'Armenia'
102,23,5,0,1,0,0,0,0,0,0,1,1,'Armenia'
508,12,9,0,0,0,0,1,0,1,0,0,0,'Nueva York'
555,10,8,0,0,0,0,1,0,1,1,0,0,'Nueva York'
483,14,9,0,0,0,0,1,1,1,1,0,0,'Nueva York'
601,8,7,0,0,0,0,1,1,1,1,0,0,'Nueva York'
525,11,8,0,0,0,0,0,1,0,1,0,0,'Nueva York'
503,12,9,0,0,0,0,0,1,1,0,0,0,'Nueva York'
550,10,8,0,0,0,0,1,1,0,1,0,0,'Nueva York'
487,14,9,0,0,0,0,1,0,1,1,0,0,'Nueva York'
604,8,7,0,0,0,0,1,1,1,0,0,0,'Nueva York'
520,11,8,0,0,0,0,0,1,1,1,0,0,'Nueva York'
500,12,9,0,0,0,0,1,0,1,1,0,0,'Nueva York'
550,10,8,0,0,0,0,1,1,0,1,0,0,'Nueva York'
480,14,9,0,0,0,0,0,1,1,1,0,0,'Nueva York'
600,8,7,0,0,0,0,1,1,0,1,0,0,'Nueva York'
521,11,8,0,0,0,0,0,1,1,0,0,0,'Nueva York'
507,12,9,0,0,0,0,1,0,1,1,0,0,'Nueva York'
551,10,8,0,0,0,0,1,0,1,1,0,0,'Nueva York'
482,14,9,0,0,0,0,0,1,1,1,0,0,'Nueva York'
607,8,7,0,0,0,0,1,1,1,1,0,0,'Nueva York'
524,11,8,0,0,0,0,0,1,0,0,0,0,'Nueva York'
507,12,9,0,0,0,0,1,1,1,1,0,0,'Nueva York'
553,10,8,0,0,0,0,0,0,0,1,0,0,'Nueva York'
489,14,9,0,0,0,0,1,1,1,1,0,0,'Nueva York'
600,8,7,0,0,0,0,1,0,0,1,0,0,'Nueva York'
521,11,8,0,0,0,0,0,1,0,1,0,0,'Nueva York'
502,12,9,0,0,0,0,1,1,1,1,0,0,'Nueva York'
550,10,8,0,0,0,0,0,1,0,1,0,0,'Nueva York'
488,14,9,0,0,0,0,1,1,1,1,0,0,'Nueva York'
600,8,7,0,0,0,0,1,0,0,1,0,0,'Nueva York'
522,11,8,0,0,0,0,0,1,1,0,0,0,'Nueva York'
508,12,9,0,0,0,0,1,0,1,0,0,0,'Nueva York'
555,10,8,0,0,0,0,1,0,1,1,0,0,'Nueva York'
483,14,9,0,0,0,0,1,1,1,1,0,0,'Nueva York'
601,8,7,0,0,0,0,1,1,1,1,0,0,'Nueva York'
525,11,8,0,0,0,0,0,1,0,1,0,0,'Nueva York'
503,12,9,0,0,0,0,0,1,1,0,0,0,'Nueva York'
550,10,8,0,0,0,0,1,1,0,1,0,0,'Nueva York'
487,14,9,0,0,0,0,1,0,1,1,0,0,'Nueva York'
604,8,7,0,0,0,0,1,1,1,0,0,0,'Nueva York'
520,11,8,0,0,0,0,0,1,1,1,0,0,'Nueva York'
500,12,9,0,0,0,0,1,0,1,1,0,0,'Nueva York'
550,10,8,0,0,0,0,1,1,0,1,0,0,'Nueva York'
480,14,9,0,0,0,0,0,1,1,1,0,0,'Nueva York'
600,8,7,0,0,0,0,1,1,0,1,0,0,'Nueva York'
521,11,8,0,0,0,0,0,1,1,0,0,0,'Nueva York'
507,12,9,0,0,0,0,1,0,1,1,0,0,'Nueva York'
551,10,8,0,0,0,0,1,0,1,1,0,0,'Nueva York'
482,14,9,0,0,0,0,0,1,1,1,0,0,'Nueva York'
607,8,7,0,0,0,0,1,1,1,1,0,0,'Nueva York'
524,11,8,0,0,0,0,0,1,0,0,0,0,'Nueva York'
507,12,9,0,0,0,0,1,1,1,1,0,0,'Nueva York'
553,10,8,0,0,0,0,0,0,0,1,0,0,'Nueva York'
489,14,9,0,0,0,0,1,1,1,1,0,0,'Nueva York'
600,8,7,0,0,0,0,1,0,0,1,0,0,'Nueva York'
521,11,8,0,0,0,0,0,1,0,1,0,0,'Nueva York'
502,12,9,0,0,0,0,1,1,1,1,0,0,'Nueva York'
550,10,8,0,0,0,0,0,1,0,1,0,0,'Nueva York'
488,14,9,0,0,0,0,1,1,1,1,0,0,'Nueva York'
600,8,7,0,0,0,0,1,0,0,1,0,0,'Nueva York'
522,11,8,0,0,0,0,0,1,1,0,0,0,'Nueva York'
508,12,9,0,0,0,0,1,0,1,0,0,0,'Nueva York'
555,10,8,0,0,0,0,1,0,1,1,0,0,'Nueva York'
483,14,9,0,0,0,0,1,1,1,1,0,0,'Nueva York'
601,8,7,0,0,0,0,1,1,1,1,0,0,'Nueva York'
525,11,8,0,0,0,0,0,1,0,1,0,0,'Nueva York'
503,12,9,0,0,0,0,0,1,1,0,0,0,'Nueva York'
550,10,8,0,0,0,0,1,1,0,1,0,0,'Nueva York'
487,14,9,0,0,0,0,1,0,1,1,0,0,'Nueva York'
604,8,7,0,0,0,0,1,1,1,0,0,0,'Nueva York'
520,11,8,0,0,0,0,0,1,1,1,0,0,'Nueva York'
500,12,9,0,0,0,0,1,0,1,1,0,0,'Nueva York'
550,10,8,0,0,0,0,1,1,0,1,0,0,'Nueva York'
480,14,9,0,0,0,0,0,1,1,1,0,0,'Nueva York'
600,8,7,0,0,0,0,1,1,0,1,0,0,'Nueva York'
521,11,8,0,0,0,0,0,1,1,0,0,0,'Nueva York'
507,12,9,0,0,0,0,1,0,1,1,0,0,'Nueva York'
551,10,8,0,0,0,0,1,0,1,1,0,0,'Nueva York'
482,14,9,0,0,0,0,0,1,1,1,0,0,'Nueva York'
607,8,7,0,0,0,0,1,1,1,1,0,0,'Nueva York'
524,11,8,0,0,0,0,0,1,0,0,0,0,'Nueva York'
507,12,9,0,0,0,0,1,1,1,1,0,0,'Nueva York'
553,10,8,0,0,0,0,0,0,0,1,0,0,'Nueva York'
489,14,9,0,0,0,0,1,1,1,1,0,0,'Nueva York'
600,8,7,0,0,0,0,1,0,0,1,0,0,'Nueva York'
521,11,8,0,0,0,0,0,1,0,1,0,0,'Nueva York'
502,12,9,0,0,0,0,1,1,1,1,0,0,'Nueva York'
550,10,8,0,0,0,0,0,1,0,1,0,0,'Nueva York'
488,14,9,0,0,0,0,1,1,1,1,0,0,'Nueva York'
600,8,7,0,0,0,0,1,0,0,1,0,0,'Nueva York'
522,11,8,0,0,0,0,0,1,1,0,0,0,'Nueva York'
458,8,7,0,0,0,0,1,0,0,0,0,0,'Chicago'
482,6,8,0,0,0,0,1,1,1,1,0,0,'Chicago'
425,10,7,0,0,0,0,0,1,0,1,0,0,'Chicago'
500,5,6,0,0,0,0,1,1,1,1,0,0,'Chicago'
409,9,7,0,0,0,0,1,1,0,1,0,0,'Chicago'
451,8,7,0,0,0,0,1,0,1,1,0,0,'Chicago'
483,6,8,0,0,0,0,1,0,0,1,0,0,'Chicago'
425,10,7,0,0,0,0,1,1,0,1,0,0,'Chicago'
503,5,6,0,0,0,0,0,1,0,1,0,0,'Chicago'
409,9,7,0,0,0,0,1,0,1,0,0,0,'Chicago'
450,8,7,0,0,0,0,0,1,1,0,0,0,'Chicago'
480,6,8,0,0,0,0,1,1,1,0,0,0,'Chicago'
420,10,7,0,0,0,0,1,1,1,1,0,0,'Chicago'
503,5,6,0,0,0,0,1,0,1,1,0,0,'Chicago'
400,9,7,0,0,0,0,1,1,1,0,0,0,'Chicago'
450,8,7,0,0,0,0,1,1,1,1,0,0,'Chicago'
482,6,8,0,0,0,0,1,0,1,1,0,0,'Chicago'
420,10,7,0,0,0,0,1,0,1,1,0,0,'Chicago'
504,5,6,0,0,0,0,0,1,1,1,0,0,'Chicago'
401,9,7,0,0,0,0,1,1,0,1,0,0,'Chicago'
456,8,7,0,0,0,0,1,1,1,1,0,0,'Chicago'
481,6,8,0,0,0,0,0,1,0,0,0,0,'Chicago'
420,10,7,0,0,0,0,1,1,0,1,0,0,'Chicago'
502,5,6,0,0,0,0,1,1,1,1,0,0,'Chicago'
400,9,7,0,0,0,0,1,0,1,1,0,0,'Chicago'
450,8,7,0,0,0,0,0,1,0,1,0,0,'Chicago'
480,6,8,0,0,0,0,1,1,0,1,0,0,'Chicago'
420,10,7,0,0,0,0,0,1,1,1,0,0,'Chicago'
486,5,6,0,0,0,0,1,1,0,1,0,0,'Chicago'
408,9,7,0,0,0,0,1,1,0,0,0,0,'Chicago'
458,8,7,0,0,0,0,1,0,0,0,0,0,'Chicago'
482,6,8,0,0,0,0,1,1,1,1,0,0,'Chicago'
425,10,7,0,0,0,0,0,1,0,1,0,0,'Chicago'
500,5,6,0,0,0,0,1,1,1,1,0,0,'Chicago'
409,9,7,0,0,0,0,1,1,0,1,0,0,'Chicago'
451,8,7,0,0,0,0,1,0,1,1,0,0,'Chicago'
483,6,8,0,0,0,0,1,0,0,1,0,0,'Chicago'
425,10,7,0,0,0,0,1,1,0,1,0,0,'Chicago'
503,5,6,0,0,0,0,0,1,0,1,0,0,'Chicago'
409,9,7,0,0,0,0,1,0,1,0,0,0,'Chicago'
450,8,7,0,0,0,0,0,1,1,0,0,0,'Chicago'
480,6,8,0,0,0,0,1,1,1,0,0,0,'Chicago'
420,10,7,0,0,0,0,1,1,1,1,0,0,'Chicago'
503,5,6,0,0,0,0,1,0,1,1,0,0,'Chicago'
400,9,7,0,0,0,0,1,1,1,0,0,0,'Chicago'
450,8,7,0,0,0,0,1,1,1,1,0,0,'Chicago'
482,6,8,0,0,0,0,1,0,1,1,0,0,'Chicago'
420,10,7,0,0,0,0,1,0,1,1,0,0,'Chicago'
504,5,6,0,0,0,0,0,1,1,1,0,0,'Chicago'
401,9,7,0,0,0,0,1,1,0,1,0,0,'Chicago'
456,8,7,0,0,0,0,1,1,1,1,0,0,'Chicago'
481,6,8,0,0,0,0,0,1,0,0,0,0,'Chicago'
420,10,7,0,0,0,0,1,1,0,1,0,0,'Chicago'
502,5,6,0,0,0,0,1,1,1,1,0,0,'Chicago'
400,9,7,0,0,0,0,1,0,1,1,0,0,'Chicago'
450,8,7,0,0,0,0,0,1,0,1,0,0,'Chicago'
480,6,8,0,0,0,0,1,1,0,1,0,0,'Chicago'
420,10,7,0,0,0,0,0,1,1,1,0,0,'Chicago'
486,5,6,0,0,0,0,1,1,0,1,0,0,'Chicago'
408,9,7,0,0,0,0,1,1,0,0,0,0,'Chicago'
458,8,7,0,0,0,0,1,0,0,0,0,0,'Chicago'
482,6,8,0,0,0,0,1,1,1,1,0,0,'Chicago'
425,10,7,0,0,0,0,0,1,0,1,0,0,'Chicago'
500,5,6,0,0,0,0,1,1,1,1,0,0,'Chicago'
409,9,7,0,0,0,0,1,1,0,1,0,0,'Chicago'
451,8,7,0,0,0,0,1,0,1,1,0,0,'Chicago'
483,6,8,0,0,0,0,1,0,0,1,0,0,'Chicago'
425,10,7,0,0,0,0,1,1,0,1,0,0,'Chicago'
503,5,6,0,0,0,0,0,1,0,1,0,0,'Chicago'
409,9,7,0,0,0,0,1,0,1,0,0,0,'Chicago'
450,8,7,0,0,0,0,0,1,1,0,0,0,'Chicago'
480,6,8,0,0,0,0,1,1,1,0,0,0,'Chicago'
420,10,7,0,0,0,0,1,1,1,1,0,0,'Chicago'
503,5,6,0,0,0,0,1,0,1,1,0,0,'Chicago'
400,9,7,0,0,0,0,1,1,1,0,0,0,'Chicago'
450,8,7,0,0,0,0,1,1,1,1,0,0,'Chicago'
482,6,8,0,0,0,0,1,0,1,1,0,0,'Chicago'
420,10,7,0,0,0,0,1,0,1,1,0,0,'Chicago'
504,5,6,0,0,0,0,0,1,1,1,0,0,'Chicago'
401,9,7,0,0,0,0,1,1,0,1,0,0,'Chicago'
456,8,7,0,0,0,0,1,1,1,1,0,0,'Chicago'
481,6,8,0,0,0,0,0,1,0,0,0,0,'Chicago'
420,10,7,0,0,0,0,1,1,0,1,0,0,'Chicago'
502,5,6,0,0,0,0,1,1,1,1,0,0,'Chicago'
400,9,7,0,0,0,0,1,0,1,1,0,0,'Chicago'
450,8,7,0,0,0,0,0,1,0,1,0,0,'Chicago'
480,6,8,0,0,0,0,1,1,0,1,0,0,'Chicago'
420,10,7,0,0,0,0,0,1,1,1,0,0,'Chicago'
486,5,6,0,0,0,0,1,1,0,1,0,0,'Chicago'
408,9,7,0,0,0,0,1,1,0,0,0,0,'Chicago'
351,25,8,1,0,0,0,0,1,1,1,0,0,'Miami'
405,24,7,1,0,0,0,0,1,1,1,0,0,'Miami'
300,26,8,1,0,0,0,0,1,1,1,0,0,'Miami'
384,23,7,1,0,0,0,0,1,1,1,0,0,'Miami'
320,25,8,1,0,0,0,0,1,1,1,0,0,'Miami'
350,25,8,1,0,0,0,0,1,1,1,0,0,'Miami'
402,24,7,1,0,0,0,0,1,1,1,0,0,'Miami'
308,26,8,1,0,0,0,0,1,1,1,0,0,'Miami'
385,23,7,1,0,0,0,0,1,1,1,0,0,'Miami'
322,25,8,1,0,0,0,0,1,1,1,0,0,'Miami'
350,25,8,1,0,0,0,0,1,1,1,0,0,'Miami'
406,24,7,1,0,0,0,0,1,1,1,0,0,'Miami'
300,26,8,1,0,0,0,0,1,1,1,0,0,'Miami'
380,23,7,1,0,0,0,0,1,1,1,0,0,'Miami'
327,25,8,1,0,0,0,0,1,1,1,0,0,'Miami'
352,25,8,1,0,0,0,0,1,1,1,0,0,'Miami'
408,24,7,1,0,0,0,0,1,1,1,0,0,'Miami'
307,26,8,1,0,0,0,0,1,1,1,0,0,'Miami'
386,23,7,1,0,0,0,0,1,1,1,0,0,'Miami'
323,25,8,1,0,0,0,0,1,1,1,0,0,'Miami'
350,25,8,1,0,0,0,0,1,1,1,0,0,'Miami'
402,24,7,1,0,0,0,0,1,1,1,0,0,'Miami'
301,26,8,1,0,0,0,0,1,1,1,0,0,'Miami'
382,23,7,1,0,0,0,0,1,1,1,0,0,'Miami'
327,25,8,1,0,0,0,0,1,1,1,0,0,'Miami'
359,25,8,1,0,0,0,0,1,1,1,0,0,'Miami'
402,24,7,1,0,0,0,0,1,1,1,0,0,'Miami'
303,26,8,1,0,0,0,0,1,1,1,0,0,'Miami'
385,23,7,1,0,0,0,0,1,1,1,0,0,'Miami'
329,25,8,1,0,0,0,0,1,1,1,0,0,'Miami'
351,25,8,1,0,0,0,0,1,1,1,0,0,'Miami'
405,24,7,1,0,0,0,0,1,1,1,0,0,'Miami'
300,26,8,1,0,0,0,0,1,1,1,0,0,'Miami'
384,23,7,1,0,0,0,0,1,1,1,0,0,'Miami'
320,25,8,1,0,0,0,0,1,1,1,0,0,'Miami'
350,25,8,1,0,0,0,0,1,1,1,0,0,'Miami'
402,24,7,1,0,0,0,0,1,1,1,0,0,'Miami'
308,26,8,1,0,0,0,0,1,1,1,0,0,'Miami'
385,23,7,1,0,0,0,0,1,1,1,0,0,'Miami'
322,25,8,1,0,0,0,0,1,1,1,0,0,'Miami'
350,25,8,1,0,0,0,0,1,1,1,0,0,'Miami'
406,24,7,1,0,0,0,0,1,1,1,0,0,'Miami'
300,26,8,1,0,0,0,0,1,1,1,0,0,'Miami'
380,23,7,1,0,0,0,0,1,1,1,0,0,'Miami'
327,25,8,1,0,0,0,0,1,1,1,0,0,'Miami'
352,25,8,1,0,0,0,0,1,1,1,0,0,'Miami'
408,24,7,1,0,0,0,0,1,1,1,0,0,'Miami'
307,26,8,1,0,0,0,0,1,1,1,0,0,'Miami'
386,23,7,1,0,0,0,0,1,1,1,0,0,'Miami'
323,25,8,1,0,0,0,0,1,1,1,0,0,'Miami'
350,25,8,1,0,0,0,0,1,1,1,0,0,'Miami'
402,24,7,1,0,0,0,0,1,1,1,0,0,'Miami'
301,26,8,1,0,0,0,0,1,1,1,0,0,'Miami'
382,23,7,1,0,0,0,0,1,1,1,0,0,'Miami'
327,25,8,1,0,0,0,0,1,1,1,0,0,'Miami'
359,25,8,1,0,0,0,0,1,1,1,0,0,'Miami'
402,24,7,1,0,0,0,0,1,1,1,0,0,'Miami'
303,26,8,1,0,0,0,0,1,1,1,0,0,'Miami'
385,23,7,1,0,0,0,0,1,1,1,0,0,'Miami'
329,25,8,1,0,0,0,0,1,1,1,0,0,'Miami'
351,25,8,1,0,0,0,0,1,1,1,0,0,'Miami'
405,24,7,1,0,0,0,0,1,1,1,0,0,'Miami'
300,26,8,1,0,0,0,0,1,1,1,0,0,'Miami'
384,23,7,1,0,0,0,0,1,1,1,0,0,'Miami'
320,25,8,1,0,0,0,0,1,1,1,0,0,'Miami'
350,25,8,1,0,0,0,0,1,1,1,0,0,'Miami'
402,24,7,1,0,0,0,0,1,1,1,0,0,'Miami'
308,26,8,1,0,0,0,0,1,1,1,0,0,'Miami'
385,23,7,1,0,0,0,0,1,1,1,0,0,'Miami'
322,25,8,1,0,0,0,0,1,1,1,0,0,'Miami'
350,25,8,1,0,0,0,0,1,1,1,0,0,'Miami'
406,24,7,1,0,0,0,0,1,1,1,0,0,'Miami'
300,26,8,1,0,0,0,0,1,1,1,0,0,'Miami'
380,23,7,1,0,0,0,0,1,1,1,0,0,'Miami'
327,25,8,1,0,0,0,0,1,1,1,0,0,'Miami'
352,25,8,1,0,0,0,0,1,1,1,0,0,'Miami'
408,24,7,1,0,0,0,0,1,1,1,0,0,'Miami'
307,26,8,1,0,0,0,0,1,1,1,0,0,'Miami'
386,23,7,1,0,0,0,0,1,1,1,0,0,'Miami'
323,25,8,1,0,0,0,0,1,1,1,0,0,'Miami'
350,25,8,1,0,0,0,0,1,1,1,0,0,'Miami'
402,24,7,1,0,0,0,0,1,1,1,0,0,'Miami'
301,26,8,1,0,0,0,0,1,1,1,0,0,'Miami'
382,23,7,1,0,0,0,0,1,1,1,0,0,'Miami'
327,25,8,1,0,0,0,0,1,1,1,0,0,'Miami'
359,25,8,1,0,0,0,0,1,1,1,0,0,'Miami'
402,24,7,1,0,0,0,0,1,1,1,0,0,'Miami'
303,26,8,1,0,0,0,0,1,1,1,0,0,'Miami'
385,23,7,1,0,0,0,0,1,1,1,0,0,'Miami'
329,25,8,1,0,0,0,0,1,1,1,0,0,'Miami'
604,20,8,1,0,0,0,0,1,0,1,0,0,'Los Angeles'
652,18,9,1,0,0,0,0,0,1,1,0,0,'Los Angeles'
551,22,8,1,0,0,0,0,1,1,0,0,0,'Los Angeles'
702,16,7,1,0,0,0,0,1,0,1,0,0,'Los Angeles'
586,19,8,1,0,0,0,0,0,0,1,0,0,'Los Angeles'
606,20,8,1,0,0,0,0,1,1,0,0,0,'Los Angeles'
659,18,9,1,0,0,0,0,0,0,1,0,0,'Los Angeles'
550,22,8,1,0,0,0,0,1,1,1,0,0,'Los Angeles'
701,16,7,1,0,0,0,0,1,1,0,0,0,'Los Angeles'
588,19,8,1,0,0,0,0,0,0,1,0,0,'Los Angeles'
603,20,8,1,0,0,0,0,1,1,1,0,0,'Los Angeles'
650,18,9,1,0,0,0,0,1,0,0,0,0,'Los Angeles'
550,22,8,1,0,0,0,0,1,1,1,0,0,'Los Angeles'
700,16,7,1,0,0,0,0,0,0,1,0,0,'Los Angeles'
582,19,8,1,0,0,0,0,1,0,1,0,0,'Los Angeles'
604,20,8,1,0,0,0,0,1,1,0,0,0,'Los Angeles'
651,18,9,1,0,0,0,0,0,1,1,0,0,'Los Angeles'
552,22,8,1,0,0,0,0,1,0,1,0,0,'Los Angeles'
700,16,7,1,0,0,0,0,1,1,0,0,0,'Los Angeles'
580,19,8,1,0,0,0,0,0,1,1,0,0,'Los Angeles'
600,20,8,1,0,0,0,0,1,0,0,0,0,'Los Angeles'
650,18,9,1,0,0,0,0,0,1,1,0,0,'Los Angeles'
556,22,8,1,0,0,0,0,0,1,1,0,0,'Los Angeles'
702,16,7,1,0,0,0,0,1,1,0,0,0,'Los Angeles'
581,19,8,1,0,0,0,0,0,1,1,0,0,'Los Angeles'
602,20,8,1,0,0,0,0,1,0,1,0,0,'Los Angeles'
654,18,9,1,0,0,0,0,1,1,1,0,0,'Los Angeles'
550,22,8,1,0,0,0,0,1,0,0,0,0,'Los Angeles'
707,16,7,1,0,0,0,0,0,1,1,0,0,'Los Angeles'
586,19,8,1,0,0,0,0,1,0,1,0,0,'Los Angeles'
604,20,8,1,0,0,0,0,1,0,1,0,0,'Los Angeles'
652,18,9,1,0,0,0,0,0,1,1,0,0,'Los Angeles'
551,22,8,1,0,0,0,0,1,1,0,0,0,'Los Angeles'
702,16,7,1,0,0,0,0,1,0,1,0,0,'Los Angeles'
586,19,8,1,0,0,0,0,0,0,1,0,0,'Los Angeles'
606,20,8,1,0,0,0,0,1,1,0,0,0,'Los Angeles'
659,18,9,1,0,0,0,0,0,0,1,0,0,'Los Angeles'
550,22,8,1,0,0,0,0,1,1,1,0,0,'Los Angeles'
701,16,7,1,0,0,0,0,1,1,0,0,0,'Los Angeles'
588,19,8,1,0,0,0,0,0,0,1,0,0,'Los Angeles'
603,20,8,1,0,0,0,0,1,1,1,0,0,'Los Angeles'
650,18,9,1,0,0,0,0,1,0,0,0,0,'Los Angeles'
550,22,8,1,0,0,0,0,1,1,1,0,0,'Los Angeles'
700,16,7,1,0,0,0,0,0,0,1,0,0,'Los Angeles'
582,19,8,1,0,0,0,0,1,0,1,0,0,'Los Angeles'
604,20,8,1,0,0,0,0,1,1,0,0,0,'Los Angeles'
651,18,9,1,0,0,0,0,0,1,1,0,0,'Los Angeles'
552,22,8,1,0,0,0,0,1,0,1,0,0,'Los Angeles'
700,16,7,1,0,0,0,0,1,1,0,0,0,'Los Angeles'
580,19,8,1,0,0,0,0,0,1,1,0,0,'Los Angeles'
600,20,8,1,0,0,0,0,1,0,0,0,0,'Los Angeles'
650,18,9,1,0,0,0,0,0,1,1,0,0,'Los Angeles'
556,22,8,1,0,0,0,0,0,1,1,0,0,'Los Angeles'
702,16,7,1,0,0,0,0,1,1,0,0,0,'Los Angeles'
581,19,8,1,0,0,0,0,0,1,1,0,0,'Los Angeles'
602,20,8,1,0,0,0,0,1,0,1,0,0,'Los Angeles'
654,18,9,1,0,0,0,0,1,1,1,0,0,'Los Angeles'
550,22,8,1,0,0,0,0,1,0,0,0,0,'Los Angeles'
707,16,7,1,0,0,0,0,0,1,1,0,0,'Los Angeles'
586,19,8,1,0,0,0,0,1,0,1,0,0,'Los Angeles'
604,20,8,1,0,0,0,0,1,0,1,0,0,'Los Angeles'
652,18,9,1,0,0,0,0,0,1,1,0,0,'Los Angeles'
551,22,8,1,0,0,0,0,1,1,0,0,0,'Los Angeles'
702,16,7,1,0,0,0,0,1,0,1,0,0,'Los Angeles'
586,19,8,1,0,0,0,0,0,0,1,0,0,'Los Angeles'
606,20,8,1,0,0,0,0,1,1,0,0,0,'Los Angeles'
659,18,9,1,0,0,0,0,0,0,1,0,0,'Los Angeles'
550,22,8,1,0,0,0,0,1,1,1,0,0,'Los Angeles'
701,16,7,1,0,0,0,0,1,1,0,0,0,'Los Angeles'
588,19,8,1,0,0,0,0,0,0,1,0,0,'Los Angeles'
603,20,8,1,0,0,0,0,1,1,1,0,0,'Los Angeles'
650,18,9,1,0,0,0,0,1,0,0,0,0,'Los Angeles'
550,22,8,1,0,0,0,0,1,1,1,0,0,'Los Angeles'
700,16,7,1,0,0,0,0,0,0,1,0,0,'Los Angeles'
582,19,8,1,0,0,0,0,1,0,1,0,0,'Los Angeles'
604,20,8,1,0,0,0,0,1,1,0,0,0,'Los Angeles'
651,18,9,1,0,0,0,0,0,1,1,0,0,'Los Angeles'
552,22,8,1,0,0,0,0,1,0,1,0,0,'Los Angeles'
700,16,7,1,0,0,0,0,1,1,0,0,0,'Los Angeles'
580,19,8,1,0,0,0,0,0,1,1,0,0,'Los Angeles'
600,20,8,1,0,0,0,0,1,0,0,0,0,'Los Angeles'
650,18,9,1,0,0,0,0,0,1,1,0,0,'Los Angeles'
556,22,8,1,0,0,0,0,0,1,1,0,0,'Los Angeles'
702,16,7,1,0,0,0,0,1,1,0,0,0,'Los Angeles'
581,19,8,1,0,0,0,0,0,1,1,0,0,'Los Angeles'
602,20,8,1,0,0,0,0,1,0,1,0,0,'Los Angeles'
654,18,9,1,0,0,0,0,1,1,1,0,0,'Los Angeles'
550,22,8,1,0,0,0,0,1,0,0,0,0,'Los Angeles'
707,16,7,1,0,0,0,0,0,1,1,0,0,'Los Angeles'
586,19,8,1,0,0,0,0,1,0,1,0,0,'Los Angeles'
706,10,9,0,0,0,0,0,1,1,0,0,0,'Londres'
752,8,8,0,0,0,0,1,0,1,1,0,0,'Londres'
650,12,9,0,0,0,0,1,0,0,1,0,0,'Londres'
800,6,7,0,0,0,0,1,1,0,1,0,0,'Londres'
680,9,8,0,0,0,0,1,0,1,1,0,0,'Londres'
706,10,9,0,0,0,0,1,1,0,1,0,0,'Londres'
750,8,8,0,0,0,0,1,0,1,1,0,0,'Londres'
655,12,9,0,0,0,0,1,1,0,1,0,0,'Londres'
803,6,7,0,0,0,0,0,1,1,1,0,0,'Londres'
680,9,8,0,0,0,0,0,1,0,1,0,0,'Londres'
708,10,9,0,0,0,0,0,1,0,1,0,0,'Londres'
754,8,8,0,0,0,0,1,1,0,1,0,0,'Londres'
657,12,9,0,0,0,0,0,1,0,1,0,0,'Londres'
806,6,7,0,0,0,0,1,1,0,1,0,0,'Londres'
689,9,8,0,0,0,0,0,1,1,0,0,0,'Londres'
708,10,9,0,0,0,0,1,0,0,0,0,0,'Londres'
757,8,8,0,0,0,0,1,1,1,1,0,0,'Londres'
650,12,9,0,0,0,0,0,1,1,0,0,0,'Londres'
807,6,7,0,0,0,0,1,0,1,1,0,0,'Londres'
683,9,8,0,0,0,0,1,1,1,1,0,0,'Londres'
701,10,9,0,0,0,0,1,1,1,1,0,0,'Londres'
750,8,8,0,0,0,0,1,1,0,0,0,0,'Londres'
653,12,9,0,0,0,0,0,1,1,1,0,0,'Londres'
808,6,7,0,0,0,0,1,0,1,1,0,0,'Londres'
684,9,8,0,0,0,0,1,1,0,1,0,0,'Londres'
700,10,9,0,0,0,0,0,1,1,1,0,0,'Londres'
750,8,8,0,0,0,0,1,1,0,1,0,0,'Londres'
650,12,9,0,0,0,0,1,1,0,0,0,0,'Londres'
804,6,7,0,0,0,0,0,1,1,1,0,0,'Londres'
688,9,8,0,0,0,0,1,0,1,1,0,0,'Londres'
706,10,9,0,0,0,0,0,1,1,0,0,0,'Londres'
752,8,8,0,0,0,0,1,0,1,1,0,0,'Londres'
650,12,9,0,0,0,0,1,0,0,1,0,0,'Londres'
800,6,7,0,0,0,0,1,1,0,1,0,0,'Londres'
680,9,8,0,0,0,0,1,0,1,1,0,0,'Londres'
706,10,9,0,0,0,0,1,1,0,1,0,0,'Londres'
750,8,8,0,0,0,0,1,0,1,1,0,0,'Londres'
655,12,9,0,0,0,0,1,1,0,1,0,0,'Londres'
803,6,7,0,0,0,0,0,1,1,1,0,0,'Londres'
680,9,8,0,0,0,0,0,1,0,1,0,0,'Londres'
708,10,9,0,0,0,0,0,1,0,1,0,0,'Londres'
754,8,8,0,0,0,0,1,1,0,1,0,0,'Londres'
657,12,9,0,0,0,0,0,1,0,1,0,0,'Londres'
806,6,7,0,0,0,0,1,1,0,1,0,0,'Londres'
689,9,8,0,0,0,0,0,1,1,0,0,0,'Londres'
708,10,9,0,0,0,0,1,0,0,0,0,0,'Londres'
757,8,8,0,0,0,0,1,1,1,1,0,0,'Londres'
650,12,9,0,0,0,0,0,1,1,0,0,0,'Londres'
807,6,7,0,0,0,0,1,0,1,1,0,0,'Londres'
683,9,8,0,0,0,0,1,1,1,1,0,0,'Londres'
701,10,9,0,0,0,0,1,1,1,1,0,0,'Londres'
750,8,8,0,0,0,0,1,1,0,0,0,0,'Londres'
653,12,9,0,0,0,0,0,1,1,1,0,0,'Londres'
808,6,7,0,0,0,0,1,0,1,1,0,0,'Londres'
684,9,8,0,0,0,0,1,1,0,1,0,0,'Londres'
700,10,9,0,0,0,0,0,1,1,1,0,0,'Londres'
750,8,8,0,0,0,0,1,1,0,1,0,0,'Londres'
650,12,9,0,0,0,0,1,1,0,0,0,0,'Londres'
804,6,7,0,0,0,0,0,1,1,1,0,0,'Londres'
688,9,8,0,0,0,0,1,0,1,1,0,0,'Londres'
706,10,9,0,0,0,0,0,1,1,0,0,0,'Londres'
752,8,8,0,0,0,0,1,0,1,1,0,0,'Londres'
650,12,9,0,0,0,0,1,0,0,1,0,0,'Londres'
800,6,7,0,0,0,0,1,1,0,1,0,0,'Londres'
680,9,8,0,0,0,0,1,0,1,1,0,0,'Londres'
706,10,9,0,0,0,0,1,1,0,1,0,0,'Londres'
750,8,8,0,0,0,0,1,0,1,1,0,0,'Londres'
655,12,9,0,0,0,0,1,1,0,1,0,0,'Londres'
803,6,7,0,0,0,0,0,1,1,1,0,0,'Londres'
680,9,8,0,0,0,0,0,1,0,1,0,0,'Londres'
708,10,9,0,0,0,0,0,1,0,1,0,0,'Londres'
754,8,8,0,0,0,0,1,1,0,1,0,0,'Londres'
657,12,9,0,0,0,0,0,1,0,1,0,0,'Londres'
806,6,7,0,0,0,0,1,1,0,1,0,0,'Londres'
689,9,8,0,0,0,0,0,1,1,0,0,0,'Londres'
708,10,9,0,0,0,0,1,0,0,0,0,0,'Londres'
757,8,8,0,0,0,0,1,1,1,1,0,0,'Londres'
650,12,9,0,0,0,0,0,1,1,0,0,0,'Londres'
807,6,7,0,0,0,0,1,0,1,1,0,0,'Londres'
683,9,8,0,0,0,0,1,1,1,1,0,0,'Londres'
701,10,9,0,0,0,0,1,1,1,1,0,0,'Londres'
750,8,8,0,0,0,0,1,1,0,0,0,0,'Londres'
653,12,9,0,0,0,0,0,1,1,1,0,0,'Londres'
808,6,7,0,0,0,0,1,0,1,1,0,0,'Londres'
684,9,8,0,0,0,0,1,1,0,1,0,0,'Londres'
700,10,9,0,0,0,0,0,1,1,1,0,0,'Londres'
750,8,8,0,0,0,0,1,1,0,1,0,0,'Londres'
650,12,9,0,0,0,0,1,1,0,0,0,0,'Londres'
804,6,7,0,0,0,0,0,1,1,1,0,0,'Londres'
688,9,8,0,0,0,0,1,0,1,1,0,0,'Londres'
657,9,7,0,0,0,0,0,1,1,1,0,0,'Manchester'
700,7,6,0,0,0,0,1,0,1,1,0,0,'Manchester'
606,11,7,0,0,0,0,1,1,1,1,0,0,'Manchester'
722,5,6,0,0,0,0,1,1,0,1,0,0,'Manchester'
631,8,7,0,0,0,0,0,1,0,1,0,0,'Manchester'
650,9,7,0,0,0,0,1,1,1,1,0,0,'Manchester'
702,7,6,0,0,0,0,1,0,1,1,0,0,'Manchester'
600,11,7,0,0,0,0,1,0,1,0,0,0,'Manchester'
720,5,6,0,0,0,0,1,1,1,0,0,0,'Manchester'
630,8,7,0,0,0,0,1,0,1,1,0,0,'Manchester'
656,9,7,0,0,0,0,1,0,1,1,0,0,'Manchester'
707,7,6,0,0,0,0,1,1,0,0,0,0,'Manchester'
602,11,7,0,0,0,0,0,1,1,1,0,0,'Manchester'
721,5,6,0,0,0,0,1,1,1,1,0,0,'Manchester'
634,8,7,0,0,0,0,0,1,1,1,0,0,'Manchester'
650,9,7,0,0,0,0,1,1,0,1,0,0,'Manchester'
707,7,6,0,0,0,0,1,0,1,1,0,0,'Manchester'
603,11,7,0,0,0,0,0,1,1,1,0,0,'Manchester'
726,5,6,0,0,0,0,1,1,1,0,0,0,'Manchester'
634,8,7,0,0,0,0,1,0,1,1,0,0,'Manchester'
652,9,7,0,0,0,0,0,1,1,1,0,0,'Manchester'
703,7,6,0,0,0,0,1,0,0,1,0,0,'Manchester'
604,11,7,0,0,0,0,1,1,1,1,0,0,'Manchester'
720,5,6,0,0,0,0,0,1,0,1,0,0,'Manchester'
630,8,7,0,0,0,0,1,1,0,1,0,0,'Manchester'
650,9,7,0,0,0,0,0,1,1,0,0,0,'Manchester'
705,7,6,0,0,0,0,1,0,1,1,0,0,'Manchester'
601,11,7,0,0,0,0,0,1,0,1,0,0,'Manchester'
725,5,6,0,0,0,0,1,0,1,1,0,0,'Manchester'
638,8,7,0,0,0,0,0,1,1,1,0,0,'Manchester'
657,9,7,0,0,0,0,0,1,1,1,0,0,'Manchester'
700,7,6,0,0,0,0,1,0,1,1,0,0,'Manchester'
606,11,7,0,0,0,0,1,1,1,1,0,0,'Manchester'
722,5,6,0,0,0,0,1,1,0,1,0,0,'Manchester'
631,8,7,0,0,0,0,0,1,0,1,0,0,'Manchester'
650,9,7,0,0,0,0,1,1,1,1,0,0,'Manchester'
702,7,6,0,0,0,0,1,0,1,1,0,0,'Manchester'
600,11,7,0,0,0,0,1,0,1,0,0,0,'Manchester'
720,5,6,0,0,0,0,1,1,1,0,0,0,'Manchester'
630,8,7,0,0,0,0,1,0,1,1,0,0,'Manchester'
656,9,7,0,0,0,0,1,0,1,1,0,0,'Manchester'
707,7,6,0,0,0,0,1,1,0,0,0,0,'Manchester'
602,11,7,0,0,0,0,0,1,1,1,0,0,'Manchester'
721,5,6,0,0,0,0,1,1,1,1,0,0,'Manchester'
634,8,7,0,0,0,0,0,1,1,1,0,0,'Manchester'
650,9,7,0,0,0,0,1,1,0,1,0,0,'Manchester'
707,7,6,0,0,0,0,1,0,1,1,0,0,'Manchester'
603,11,7,0,0,0,0,0,1,1,1,0,0,'Manchester'
726,5,6,0,0,0,0,1,1,1,0,0,0,'Manchester'
634,8,7,0,0,0,0,1,0,1,1,0,0,'Manchester'
652,9,7,0,0,0,0,0,1,1,1,0,0,'Manchester'
703,7,6,0,0,0,0,1,0,0,1,0,0,'Manchester'
604,11,7,0,0,0,0,1,1,1,1,0,0,'Manchester'
720,5,6,0,0,0,0,0,1,0,1,0,0,'Manchester'
630,8,7,0,0,0,0,1,1,0,1,0,0,'Manchester'
650,9,7,0,0,0,0,0,1,1,0,0,0,'Manchester'
705,7,6,0,0,0,0,1,0,1,1,0,0,'Manchester'
601,11,7,0,0,0,0,0,1,0,1,0,0,'Manchester'
725,5,6,0,0,0,0,1,0,1,1,0,0,'Manchester'
638,8,7,0,0,0,0,0,1,1,1,0,0,'Manchester'
657,9,7,0,0,0,0,0,1,1,1,0,0,'Manchester'
700,7,6,0,0,0,0,1,0,1,1,0,0,'Manchester'
606,11,7,0,0,0,0,1,1,1,1,0,0,'Manchester'
722,5,6,0,0,0,0,1,1,0,1,0,0,'Manchester'
631,8,7,0,0,0,0,0,1,0,1,0,0,'Manchester'
650,9,7,0,0,0,0,1,1,1,1,0,0,'Manchester'
702,7,6,0,0,0,0,1,0,1,1,0,0,'Manchester'
600,11,7,0,0,0,0,1,0,1,0,0,0,'Manchester'
720,5,6,0,0,0,0,1,1,1,0,0,0,'Manchester'
630,8,7,0,0,0,0,1,0,1,1,0,0,'Manchester'
656,9,7,0,0,0,0,1,0,1,1,0,0,'Manchester'
707,7,6,0,0,0,0,1,1,0,0,0,0,'Manchester'
602,11,7,0,0,0,0,0,1,1,1,0,0,'Manchester'
721,5,6,0,0,0,0,1,1,1,1,0,0,'Manchester'
634,8,7,0,0,0,0,0,1,1,1,0,0,'Manchester'
650,9,7,0,0,0,0,1,1,0,1,0,0,'Manchester'
707,7,6,0,0,0,0,1,0,1,1,0,0,'Manchester'
603,11,7,0,0,0,0,0,1,1,1,0,0,'Manchester'
726,5,6,0,0,0,0,1,1,1,0,0,0,'Manchester'
634,8,7,0,0,0,0,1,0,1,1,0,0,'Manchester'
652,9,7,0,0,0,0,0,1,1,1,0,0,'Manchester'
703,7,6,0,0,0,0,1,0,0,1,0,0,'Manchester'
604,11,7,0,0,0,0,1,1,1,1,0,0,'Manchester'
720,5,6,0,0,0,0,0,1,0,1,0,0,'Manchester'
630,8,7,0,0,0,0,1,1,0,1,0,0,'Manchester'
650,9,7,0,0,0,0,0,1,1,0,0,0,'Manchester'
705,7,6,0,0,0,0,1,0,1,1,0,0,'Manchester'
601,11,7,0,0,0,0,0,1,0,1,0,0,'Manchester'
725,5,6,0,0,0,0,1,0,1,1,0,0,'Manchester'
638,8,7,0,0,0,0,0,1,1,1,0,0,'Manchester'
681,8,6,0,0,0,0,0,1,1,0,0,0,'Edinburgo'
728,6,7,0,0,0,0,1,1,0,0,0,0,'Edinburgo'
645,10,6,0,0,0,0,1,1,1,1,0,0,'Edinburgo'
752,4,5,0,0,0,0,0,1,0,1,0,0,'Edinburgo'
664,7,6,0,0,0,0,1,1,1,0,0,0,'Edinburgo'
681,8,6,0,0,0,0,1,0,1,1,0,0,'Edinburgo'
722,6,7,0,0,0,0,1,1,1,1,0,0,'Edinburgo'
640,10,6,0,0,0,0,1,1,1,1,0,0,'Edinburgo'
750,4,5,0,0,0,0,1,1,0,1,0,0,'Edinburgo'
660,7,6,0,0,0,0,1,0,1,1,0,0,'Edinburgo'
680,8,6,0,0,0,0,1,1,1,1,0,0,'Edinburgo'
720,6,7,0,0,0,0,0,1,1,1,0,0,'Edinburgo'
640,10,6,0,0,0,0,1,0,1,1,0,0,'Edinburgo'
750,4,5,0,0,0,0,0,1,1,1,0,0,'Edinburgo'
662,7,6,0,0,0,0,1,1,0,1,0,0,'Edinburgo'
688,8,6,0,0,0,0,1,1,1,1,0,0,'Edinburgo'
727,6,7,0,0,0,0,1,1,0,1,0,0,'Edinburgo'
640,10,6,0,0,0,0,1,1,1,1,0,0,'Edinburgo'
751,4,5,0,0,0,0,0,1,1,1,0,0,'Edinburgo'
663,7,6,0,0,0,0,1,0,1,0,0,0,'Edinburgo'
686,8,6,0,0,0,0,1,0,1,1,0,0,'Edinburgo'
720,6,7,0,0,0,0,0,1,0,1,0,0,'Edinburgo'
640,10,6,0,0,0,0,1,1,1,1,0,0,'Edinburgo'
752,4,5,0,0,0,0,0,1,0,1,0,0,'Edinburgo'
665,7,6,0,0,0,0,1,1,0,1,0,0,'Edinburgo'
685,8,6,0,0,0,0,1,0,1,1,0,0,'Edinburgo'
723,6,7,0,0,0,0,0,1,1,0,0,0,'Edinburgo'
640,10,6,0,0,0,0,1,1,1,1,0,0,'Edinburgo'
750,4,5,0,0,0,0,0,1,1,1,0,0,'Edinburgo'
660,7,6,0,0,0,0,1,1,0,1,0,0,'Edinburgo'
681,8,6,0,0,0,0,0,1,1,0,0,0,'Edinburgo'
728,6,7,0,0,0,0,1,1,0,0,0,0,'Edinburgo'
645,10,6,0,0,0,0,1,1,1,1,0,0,'Edinburgo'
752,4,5,0,0,0,0,0,1,0,1,0,0,'Edinburgo'
664,7,6,0,0,0,0,1,1,1,0,0,0,'Edinburgo'
681,8,6,0,0,0,0,1,0,1,1,0,0,'Edinburgo'
722,6,7,0,0,0,0,1,1,1,1,0,0,'Edinburgo'
640,10,6,0,0,0,0,1,1,1,1,0,0,'Edinburgo'
750,4,5,0,0,0,0,1,1,0,1,0,0,'Edinburgo'
660,7,6,0,0,0,0,1,0,1,1,0,0,'Edinburgo'
680,8,6,0,0,0,0,1,1,1,1,0,0,'Edinburgo'
720,6,7,0,0,0,0,0,1,1,1,0,0,'Edinburgo'
640,10,6,0,0,0,0,1,0,1,1,0,0,'Edinburgo'
750,4,5,0,0,0,0,0,1,1,1,0,0,'Edinburgo'
662,7,6,0,0,0,0,1,1,0,1,0,0,'Edinburgo'
688,8,6,0,0,0,0,1,1,1,1,0,0,'Edinburgo'
727,6,7,0,0,0,0,1,1,0,1,0,0,'Edinburgo'
640,10,6,0,0,0,0,1,1,1,1,0,0,'Edinburgo'
751,4,5,0,0,0,0,0,1,1,1,0,0,'Edinburgo'
663,7,6,0,0,0,0,1,0,1,0,0,0,'Edinburgo'
686,8,6,0,0,0,0,1,0,1,1,0,0,'Edinburgo'
720,6,7,0,0,0,0,0,1,0,1,0,0,'Edinburgo'
640,10,6,0,0,0,0,1,1,1,1,0,0,'Edinburgo'
752,4,5,0,0,0,0,0,1,0,1,0,0,'Edinburgo'
665,7,6,0,0,0,0,1,1,0,1,0,0,'Edinburgo'
685,8,6,0,0,0,0,1,0,1,1,0,0,'Edinburgo'
723,6,7,0,0,0,0,0,1,1,0,0,0,'Edinburgo'
640,10,6,0,0,0,0,1,1,1,1,0,0,'Edinburgo'
750,4,5,0,0,0,0,0,1,1,1,0,0,'Edinburgo'
660,7,6,0,0,0,0,1,1,0,1,0,0,'Edinburgo'
681,8,6,0,0,0,0,0,1,1,0,0,0,'Edinburgo'
728,6,7,0,0,0,0,1,1,0,0,0,0,'Edinburgo'
645,10,6,0,0,0,0,1,1,1,1,0,0,'Edinburgo'
752,4,5,0,0,0,0,0,1,0,1,0,0,'Edinburgo'
664,7,6,0,0,0,0,1,1,1,0,0,0,'Edinburgo'
681,8,6,0,0,0,0,1,0,1,1,0,0,'Edinburgo'
722,6,7,0,0,0,0,1,1,1,1,0,0,'Edinburgo'
640,10,6,0,0,0,0,1,1,1,1,0,0,'Edinburgo'
750,4,5,0,0,0,0,1,1,0,1,0,0,'Edinburgo'
660,7,6,0,0,0,0,1,0,1,1,0,0,'Edinburgo'
680,8,6,0,0,0,0,1,1,1,1,0,0,'Edinburgo'
720,6,7,0,0,0,0,0,1,1,1,0,0,'Edinburgo'
640,10,6,0,0,0,0,1,0,1,1,0,0,'Edinburgo'
750,4,5,0,0,0,0,0,1,1,1,0,0,'Edinburgo'
662,7,6,0,0,0,0,1,1,0,1,0,0,'Edinburgo'
688,8,6,0,0,0,0,1,1,1,1,0,0,'Edinburgo'
727,6,7,0,0,0,0,1,1,0,1,0,0,'Edinburgo'
640,10,6,0,0,0,0,1,1,1,1,0,0,'Edinburgo'
751,4,5,0,0,0,0,0,1,1,1,0,0,'Edinburgo'
663,7,6,0,0,0,0,1,0,1,0,0,0,'Edinburgo'
686,8,6,0,0,0,0,1,0,1,1,0,0,'Edinburgo'
720,6,7,0,0,0,0,0,1,0,1,0,0,'Edinburgo'
640,10,6,0,0,0,0,1,1,1,1,0,0,'Edinburgo'
752,4,5,0,0,0,0,0,1,0,1,0,0,'Edinburgo'
665,7,6,0,0,0,0,1,1,0,1,0,0,'Edinburgo'
685,8,6,0,0,0,0,1,0,1,1,0,0,'Edinburgo'
723,6,7,0,0,0,0,0,1,1,0,0,0,'Edinburgo'
640,10,6,0,0,0,0,1,1,1,1,0,0,'Edinburgo'
750,4,5,0,0,0,0,0,1,1,1,0,0,'Edinburgo'
660,7,6,0,0,0,0,1,1,0,1,0,0,'Edinburgo'
406,28,8,1,0,1,0,0,1,1,0,1,1,'Cancun'
458,27,7,1,0,1,0,0,0,0,1,0,1,'Cancun'
387,29,8,1,0,1,0,0,1,1,0,1,0,'Cancun'
501,26,7,1,0,1,0,0,1,0,1,1,1,'Cancun'
423,28,8,1,0,1,0,0,1,1,1,0,1,'Cancun'
402,28,8,1,0,1,0,0,0,1,1,0,1,'Cancun'
459,27,7,1,0,1,0,0,1,0,1,0,1,'Cancun'
380,29,8,1,0,1,0,0,1,1,1,0,1,'Cancun'
508,26,7,1,0,1,0,0,1,0,1,0,1,'Cancun'
425,28,8,1,0,1,0,0,0,0,1,1,0,'Cancun'
405,28,8,1,0,1,0,0,0,1,1,0,1,'Cancun'
450,27,7,1,0,1,0,0,1,1,0,0,1,'Cancun'
380,29,8,1,0,1,0,0,0,0,1,1,1,'Cancun'
502,26,7,1,0,1,0,0,1,0,1,0,1,'Cancun'
424,28,8,1,0,0,0,0,1,1,0,1,0,'Cancun'
405,28,8,1,0,1,0,0,0,1,0,1,1,'Cancun'
457,27,7,1,0,1,0,0,1,0,1,0,0,'Cancun'
380,29,8,1,0,1,0,0,1,1,1,1,1,'Cancun'
508,26,7,1,0,1,0,0,0,1,1,1,1,'Cancun'
423,28,8,1,0,1,0,0,1,0,0,1,1,'Cancun'
408,28,8,1,0,1,0,0,1,0,0,1,1,'Cancun'
458,27,7,1,0,1,0,0,1,1,0,1,0,'Cancun'
381,29,8,1,0,1,0,0,1,0,1,0,1,'Cancun'
501,26,7,1,0,0,0,0,1,0,1,1,0,'Cancun'
422,28,8,1,0,1,0,0,1,1,0,1,1,'Cancun'
406,28,8,1,0,1,0,0,0,1,1,1,0,'Cancun'
454,27,7,1,0,1,0,0,0,1,1,1,0,'Cancun'
384,29,8,1,0,1,0,0,1,1,1,0,1,'Cancun'
508,26,7,1,0,1,0,0,1,0,0,1,1,'Cancun'
422,28,8,1,0,1,0,0,0,1,1,0,1,'Cancun'
406,28,8,1,0,1,0,0,1,1,0,1,1,'Cancun'
458,27,7,1,0,1,0,0,0,0,1,0,1,'Cancun'
387,29,8,1,0,1,0,0,1,1,0,1,0,'Cancun'
501,26,7,1,0,1,0,0,1,0,1,1,1,'Cancun'
423,28,8,1,0,1,0,0,1,1,1,0,1,'Cancun'
402,28,8,1,0,1,0,0,0,1,1,0,1,'Cancun'
459,27,7,1,0,1,0,0,1,0,1,0,1,'Cancun'
380,29,8,1,0,1,0,0,1,1,1,0,1,'Cancun'
508,26,7,1,0,1,0,0,1,0,1,0,1,'Cancun'
425,28,8,1,0,1,0,0,0,0,1,1,0,'Cancun'
405,28,8,1,0,1,0,0,0,1,1,0,1,'Cancun'
450,27,7,1,0,1,0,0,1,1,0,0,1,'Cancun'
380,29,8,1,0,1,0,0,0,0,1,1,1,'Cancun'
502,26,7,1,0,1,0,0,1,0,1,0,1,'Cancun'
424,28,8,1,0,0,0,0,1,1,0,1,0,'Cancun'
405,28,8,1,0,1,0,0,0,1,0,1,1,'Cancun'
457,27,7,1,0,1,0,0,1,0,1,0,0,'Cancun'
380,29,8,1,0,1,0,0,1,1,1,1,1,'Cancun'
508,26,7,1,0,1,0,0,0,1,1,1,1,'Cancun'
423,28,8,1,0,1,0,0,1,0,0,1,1,'Cancun'
408,28,8,1,0,1,0,0,1,0,0,1,1,'Cancun'
458,27,7,1,0,1,0,0,1,1,0,1,0,'Cancun'
381,29,8,1,0,1,0,0,1,0,1,0,1,'Cancun'
501,26,7,1,0,0,0,0,1,0,1,1,0,'Cancun'
422,28,8,1,0,1,0,0,1,1,0,1,1,'Cancun'
406,28,8,1,0,1,0,0,0,1,1,1,0,'Cancun'
454,27,7,1,0,1,0,0,0,1,1,1,0,'Cancun'
384,29,8,1,0,1,0,0,1,1,1,0,1,'Cancun'
508,26,7,1,0,1,0,0,1,0,0,1,1,'Cancun'
422,28,8,1,0,1,0,0,0,1,1,0,1,'Cancun'
406,28,8,1,0,1,0,0,1,1,0,1,1,'Cancun'
458,27,7,1,0,1,0,0,0,0,1,0,1,'Cancun'
387,29,8,1,0,1,0,0,1,1,0,1,0,'Cancun'
501,26,7,1,0,1,0,0,1,0,1,1,1,'Cancun'
423,28,8,1,0,1,0,0,1,1,1,0,1,'Cancun'
402,28,8,1,0,1,0,0,0,1,1,0,1,'Cancun'
459,27,7,1,0,1,0,0,1,0,1,0,1,'Cancun'
380,29,8,1,0,1,0,0,1,1,1,0,1,'Cancun'
508,26,7,1,0,1,0,0,1,0,1,0,1,'Cancun'
425,28,8,1,0,1,0,0,0,0,1,1,0,'Cancun'
405,28,8,1,0,1,0,0,0,1,1,0,1,'Cancun'
450,27,7,1,0,1,0,0,1,1,0,0,1,'Cancun'
380,29,8,1,0,1,0,0,0,0,1,1,1,'Cancun'
502,26,7,1,0,1,0,0,1,0,1,0,1,'Cancun'
424,28,8,1,0,0,0,0,1,1,0,1,0,'Cancun'
405,28,8,1,0,1,0,0,0,1,0,1,1,'Cancun'
457,27,7,1,0,1,0,0,1,0,1,0,0,'Cancun'
380,29,8,1,0,1,0,0,1,1,1,1,1,'Cancun'
508,26,7,1,0,1,0,0,0,1,1,1,1,'Cancun'
423,28,8,1,0,1,0,0,1,0,0,1,1,'Cancun'
408,28,8,1,0,1,0,0,1,0,0,1,1,'Cancun'
458,27,7,1,0,1,0,0,1,1,0,1,0,'Cancun'
381,29,8,1,0,1,0,0,1,0,1,0,1,'Cancun'
501,26,7,1,0,0,0,0,1,0,1,1,0,'Cancun'
422,28,8,1,0,1,0,0,1,1,0,1,1,'Cancun'
406,28,8,1,0,1,0,0,0,1,1,1,0,'Cancun'
454,27,7,1,0,1,0,0,0,1,1,1,0,'Cancun'
384,29,8,1,0,1,0,0,1,1,1,0,1,'Cancun'
508,26,7,1,0,1,0,0,1,0,0,1,1,'Cancun'
422,28,8,1,0,1,0,0,0,1,1,0,1,'Cancun'
554,5,5,0,0,0,0,1,1,1,0,0,0,'Ottawa'
609,3,6,0,0,0,0,1,1,0,1,0,0,'Ottawa'
505,7,5,0,0,0,0,0,1,0,1,0,0,'Ottawa'
653,2,4,0,0,0,0,1,0,1,0,0,0,'Ottawa'
520,4,5,0,0,0,0,0,1,0,1,0,0,'Ottawa'
550,5,5,0,0,0,0,1,1,0,0,0,0,'Ottawa'
607,3,6,0,0,0,0,1,0,0,1,0,0,'Ottawa'
501,7,5,0,0,0,0,0,1,1,0,0,0,'Ottawa'
650,2,4,0,0,0,0,1,1,0,1,0,0,'Ottawa'
526,4,5,0,0,0,0,1,0,1,1,0,0,'Ottawa'
558,5,5,0,0,0,0,1,1,0,1,0,0,'Ottawa'
602,3,6,0,0,0,0,0,0,1,1,0,0,'Ottawa'
503,7,5,0,0,0,0,1,1,1,1,0,0,'Ottawa'
651,2,4,0,0,0,0,0,1,0,1,0,0,'Ottawa'
524,4,5,0,0,0,0,1,1,1,0,0,0,'Ottawa'
550,5,5,0,0,0,0,1,0,0,1,0,0,'Ottawa'
603,3,6,0,0,0,0,0,1,1,1,0,0,'Ottawa'
508,7,5,0,0,0,0,0,1,0,1,0,0,'Ottawa'
658,2,4,0,0,0,0,1,0,0,1,0,0,'Ottawa'
520,4,5,0,0,0,0,1,1,0,1,0,0,'Ottawa'
550,5,5,0,0,0,0,1,0,1,0,0,0,'Ottawa'
606,3,6,0,0,0,0,1,1,1,1,0,0,'Ottawa'
507,7,5,0,0,0,0,0,1,0,1,0,0,'Ottawa'
658,2,4,0,0,0,0,0,1,1,1,0,0,'Ottawa'
529,4,5,0,0,0,0,1,0,0,1,0,0,'Ottawa'
553,5,5,0,0,0,0,1,0,1,0,0,0,'Ottawa'
601,3,6,0,0,0,0,1,1,1,0,0,0,'Ottawa'
506,7,5,0,0,0,0,0,1,1,1,0,0,'Ottawa'
655,2,4,0,0,0,0,0,0,1,1,0,0,'Ottawa'
527,4,5,0,0,0,0,1,1,0,1,0,0,'Ottawa'
554,5,5,0,0,0,0,1,1,1,0,0,0,'Ottawa'
609,3,6,0,0,0,0,1,1,0,1,0,0,'Ottawa'
505,7,5,0,0,0,0,0,1,0,1,0,0,'Ottawa'
653,2,4,0,0,0,0,1,0,1,0,0,0,'Ottawa'
520,4,5,0,0,0,0,0,1,0,1,0,0,'Ottawa'
550,5,5,0,0,0,0,1,1,0,0,0,0,'Ottawa'
607,3,6,0,0,0,0,1,0,0,1,0,0,'Ottawa'
501,7,5,0,0,0,0,0,1,1,0,0,0,'Ottawa'
650,2,4,0,0,0,0,1,1,0,1,0,0,'Ottawa'
526,4,5,0,0,0,0,1,0,1,1,0,0,'Ottawa'
558,5,5,0,0,0,0,1,1,0,1,0,0,'Ottawa'
602,3,6,0,0,0,0,0,0,1,1,0,0,'Ottawa'
503,7,5,0,0,0,0,1,1,1,1,0,0,'Ottawa'
651,2,4,0,0,0,0,0,1,0,1,0,0,'Ottawa'
524,4,5,0,0,0,0,1,1,1,0,0,0,'Ottawa'
550,5,5,0,0,0,0,1,0,0,1,0,0,'Ottawa'
603,3,6,0,0,0,0,0,1,1,1,0,0,'Ottawa'
508,7,5,0,0,0,0,0,1,0,1,0,0,'Ottawa'
658,2,4,0,0,0,0,1,0,0,1,0,0,'Ottawa'
520,4,5,0,0,0,0,1,1,0,1,0,0,'Ottawa'
550,5,5,0,0,0,0,1,0,1,0,0,0,'Ottawa'
606,3,6,0,0,0,0,1,1,1,1,0,0,'Ottawa'
507,7,5,0,0,0,0,0,1,0,1,0,0,'Ottawa'
658,2,4,0,0,0,0,0,1,1,1,0,0,'Ottawa'
529,4,5,0,0,0,0,1,0,0,1,0,0,'Ottawa'
553,5,5,0,0,0,0,1,0,1,0,0,0,'Ottawa'
601,3,6,0,0,0,0,1,1,1,0,0,0,'Ottawa'
506,7,5,0,0,0,0,0,1,1,1,0,0,'Ottawa'
655,2,4,0,0,0,0,0,0,1,1,0,0,'Ottawa'
527,4,5,0,0,0,0,1,1,0,1,0,0,'Ottawa'
554,5,5,0,0,0,0,1,1,1,0,0,0,'Ottawa'
609,3,6,0,0,0,0,1,1,0,1,0,0,'Ottawa'
505,7,5,0,0,0,0,0,1,0,1,0,0,'Ottawa'
653,2,4,0,0,0,0,1,0,1,0,0,0,'Ottawa'
520,4,5,0,0,0,0,0,1,0,1,0,0,'Ottawa'
550,5,5,0,0,0,0,1,1,0,0,0,0,'Ottawa'
607,3,6,0,0,0,0,1,0,0,1,0,0,'Ottawa'
501,7,5,0,0,0,0,0,1,1,0,0,0,'Ottawa'
650,2,4,0,0,0,0,1,1,0,1,0,0,'Ottawa'
526,4,5,0,0,0,0,1,0,1,1,0,0,'Ottawa'
558,5,5,0,0,0,0,1,1,0,1,0,0,'Ottawa'
602,3,6,0,0,0,0,0,0,1,1,0,0,'Ottawa'
503,7,5,0,0,0,0,1,1,1,1,0,0,'Ottawa'
651,2,4,0,0,0,0,0,1,0,1,0,0,'Ottawa'
524,4,5,0,0,0,0,1,1,1,0,0,0,'Ottawa'
550,5,5,0,0,0,0,1,0,0,1,0,0,'Ottawa'
603,3,6,0,0,0,0,0,1,1,1,0,0,'Ottawa'
508,7,5,0,0,0,0,0,1,0,1,0,0,'Ottawa'
658,2,4,0,0,0,0,1,0,0,1,0,0,'Ottawa'
520,4,5,0,0,0,0,1,1,0,1,0,0,'Ottawa'
550,5,5,0,0,0,0,1,0,1,0,0,0,'Ottawa'
606,3,6,0,0,0,0,1,1,1,1,0,0,'Ottawa'
507,7,5,0,0,0,0,0,1,0,1,0,0,'Ottawa'
658,2,4,0,0,0,0,0,1,1,1,0,0,'Ottawa'
529,4,5,0,0,0,0,1,0,0,1,0,0,'Ottawa'
553,5,5,0,0,0,0,1,0,1,0,0,0,'Ottawa'
601,3,6,0,0,0,0,1,1,1,0,0,0,'Ottawa'
506,7,5,0,0,0,0,0,1,1,1,0,0,'Ottawa'
655,2,4,0,0,0,0,0,0,1,1,0,0,'Ottawa'
527,4,5,0,0,0,0,1,1,0,1,0,0,'Ottawa'
651,12,9,0,0,0,0,1,0,1,1,0,0,'Paris'
703,10,8,0,0,0,0,1,0,0,1,0,0,'Paris'
645,14,9,0,0,0,0,1,0,1,0,0,0,'Paris'
756,8,7,0,0,0,0,1,1,1,0,0,0,'Paris'
690,16,8,0,0,0,0,0,1,0,1,0,0,'Paris'
650,12,9,0,0,0,0,1,1,0,1,0,0,'Paris'
700,10,8,0,0,0,0,1,0,0,1,0,0,'Paris'
645,14,9,0,0,0,0,0,0,1,1,0,0,'Paris'
750,8,7,0,0,0,0,1,1,1,1,0,0,'Paris'
697,16,8,0,0,0,0,0,1,0,1,0,0,'Paris'
652,12,9,0,0,0,0,1,0,1,1,0,0,'Paris'
701,10,8,0,0,0,0,1,0,0,1,0,0,'Paris'
645,14,9,0,0,0,0,1,0,1,1,0,0,'Paris'
750,8,7,0,0,0,0,1,1,0,1,0,0,'Paris'
691,16,8,0,0,0,0,0,1,0,1,0,0,'Paris'
653,12,9,0,0,0,0,0,1,1,1,0,0,'Paris'
709,10,8,0,0,0,0,0,0,0,1,0,0,'Paris'
645,14,9,0,0,0,0,1,1,1,0,0,0,'Paris'
750,8,7,0,0,0,0,1,0,1,1,0,0,'Paris'
696,16,8,0,0,0,0,0,1,0,1,0,0,'Paris'
655,12,9,0,0,0,0,1,0,1,1,0,0,'Paris'
703,10,8,0,0,0,0,1,0,0,1,0,0,'Paris'
645,14,9,0,0,0,0,1,1,1,1,0,0,'Paris'
750,8,7,0,0,0,0,1,0,1,1,0,0,'Paris'
690,16,8,0,0,0,0,0,1,0,1,0,0,'Paris'
650,12,9,0,0,0,0,0,1,1,0,0,0,'Paris'
707,10,8,0,0,0,0,1,0,0,1,0,0,'Paris'
645,14,9,0,0,0,0,1,1,1,0,0,0,'Paris'
752,8,7,0,0,0,0,1,0,1,1,0,0,'Paris'
693,16,8,0,0,0,0,0,1,0,1,0,0,'Paris'
651,12,9,0,0,0,0,1,0,1,1,0,0,'Paris'
703,10,8,0,0,0,0,1,0,0,1,0,0,'Paris'
645,14,9,0,0,0,0,1,0,1,0,0,0,'Paris'
756,8,7,0,0,0,0,1,1,1,0,0,0,'Paris'
690,16,8,0,0,0,0,0,1,0,1,0,0,'Paris'
650,12,9,0,0,0,0,1,1,0,1,0,0,'Paris'
700,10,8,0,0,0,0,1,0,0,1,0,0,'Paris'
645,14,9,0,0,0,0,0,0,1,1,0,0,'Paris'
750,8,7,0,0,0,0,1,1,1,1,0,0,'Paris'
697,16,8,0,0,0,0,0,1,0,1,0,0,'Paris'
652,12,9,0,0,0,0,1,0,1,1,0,0,'Paris'
701,10,8,0,0,0,0,1,0,0,1,0,0,'Paris'
645,14,9,0,0,0,0,1,0,1,1,0,0,'Paris'
750,8,7,0,0,0,0,1,1,0,1,0,0,'Paris'
691,16,8,0,0,0,0,0,1,0,1,0,0,'Paris'
653,12,9,0,0,0,0,0,1,1,1,0,0,'Paris'
709,10,8,0,0,0,0,0,0,0,1,0,0,'Paris'
645,14,9,0,0,0,0,1,1,1,0,0,0,'Paris'
750,8,7,0,0,0,0,1,0,1,1,0,0,'Paris'
696,16,8,0,0,0,0,0,1,0,1,0,0,'Paris'
655,12,9,0,0,0,0,1,0,1,1,0,0,'Paris'
703,10,8,0,0,0,0,1,0,0,1,0,0,'Paris'
645,14,9,0,0,0,0,1,1,1,1,0,0,'Paris'
750,8,7,0,0,0,0,1,0,1,1,0,0,'Paris'
690,16,8,0,0,0,0,0,1,0,1,0,0,'Paris'
650,12,9,0,0,0,0,0,1,1,0,0,0,'Paris'
707,10,8,0,0,0,0,1,0,0,1,0,0,'Paris'
645,14,9,0,0,0,0,1,1,1,0,0,0,'Paris'
752,8,7,0,0,0,0,1,0,1,1,0,0,'Paris'
693,16,8,0,0,0,0,0,1,0,1,0,0,'Paris'
651,12,9,0,0,0,0,1,0,1,1,0,0,'Paris'
703,10,8,0,0,0,0,1,0,0,1,0,0,'Paris'
645,14,9,0,0,0,0,1,0,1,0,0,0,'Paris'
756,8,7,0,0,0,0,1,1,1,0,0,0,'Paris'
690,16,8,0,0,0,0,0,1,0,1,0,0,'Paris'
650,12,9,0,0,0,0,1,1,0,1,0,0,'Paris'
700,10,8,0,0,0,0,1,0,0,1,0,0,'Paris'
645,14,9,0,0,0,0,0,0,1,1,0,0,'Paris'
750,8,7,0,0,0,0,1,1,1,1,0,0,'Paris'
697,16,8,0,0,0,0,0,1,0,1,0,0,'Paris'
652,12,9,0,0,0,0,1,0,1,1,0,0,'Paris'
701,10,8,0,0,0,0,1,0,0,1,0,0,'Paris'
645,14,9,0,0,0,0,1,0,1,1,0,0,'Paris'
750,8,7,0,0,0,0,1,1,0,1,0,0,'Paris'
691,16,8,0,0,0,0,0,1,0,1,0,0,'Paris'
653,12,9,0,0,0,0,0,1,1,1,0,0,'Paris'
709,10,8,0,0,0,0,0,0,0,1,0,0,'Paris'
645,14,9,0,0,0,0,1,1,1,0,0,0,'Paris'
750,8,7,0,0,0,0,1,0,1,1,0,0,'Paris'
696,16,8,0,0,0,0,0,1,0,1,0,0,'Paris'
655,12,9,0,0,0,0,1,0,1,1,0,0,'Paris'
703,10,8,0,0,0,0,1,0,0,1,0,0,'Paris'
645,14,9,0,0,0,0,1,1,1,1,0,0,'Paris'
750,8,7,0,0,0,0,1,0,1,1,0,0,'Paris'
690,16,8,0,0,0,0,0,1,0,1,0,0,'Paris'
650,12,9,0,0,0,0,0,1,1,0,0,0,'Paris'
707,10,8,0,0,0,0,1,0,0,1,0,0,'Paris'
645,14,9,0,0,0,0,1,1,1,0,0,0,'Paris'
752,8,7,0,0,0,0,1,0,1,1,0,0,'Paris'
693,16,8,0,0,0,0,0,1,0,1,0,0,'Paris'
622,18,8,0,0,0,0,1,1,1,1,0,0,'Roma'
678,16,9,0,0,0,0,1,0,1,1,0,0,'Roma'
581,20,8,0,0,0,0,1,1,1,1,0,0,'Roma'
720,14,7,0,0,0,0,0,1,1,0,0,0,'Roma'
632,17,8,0,0,0,0,1,1,0,1,0,0,'Roma'
624,18,8,0,0,0,0,1,0,1,1,0,0,'Roma'
675,16,9,0,0,0,0,1,1,0,1,0,0,'Roma'
585,20,8,0,0,0,0,1,1,1,0,0,0,'Roma'
722,14,7,0,0,0,0,1,0,1,1,0,0,'Roma'
630,17,8,0,0,0,0,0,0,1,1,0,0,'Roma'
623,18,8,0,0,0,0,1,1,0,1,0,0,'Roma'
670,16,9,0,0,0,0,0,1,0,1,0,0,'Roma'
584,20,8,0,0,0,0,1,1,1,1,0,0,'Roma'
720,14,7,0,0,0,0,1,0,1,0,0,0,'Roma'
638,17,8,0,0,0,0,1,0,1,0,0,0,'Roma'
620,18,8,0,0,0,0,1,0,1,1,0,0,'Roma'
674,16,9,0,0,0,0,0,1,0,1,0,0,'Roma'
587,20,8,0,0,0,0,1,1,0,0,0,0,'Roma'
722,14,7,0,0,0,0,1,0,1,1,0,0,'Roma'
630,17,8,0,0,0,0,1,0,1,1,0,0,'Roma'
628,18,8,0,0,0,0,1,1,0,1,0,0,'Roma'
677,16,9,0,0,0,0,1,0,1,1,0,0,'Roma'
582,20,8,0,0,0,0,1,0,1,0,0,0,'Roma'
726,14,7,0,0,0,0,1,0,0,1,0,0,'Roma'
632,17,8,0,0,0,0,0,1,1,0,0,0,'Roma'
628,18,8,0,0,0,0,0,1,0,1,0,0,'Roma'
670,16,9,0,0,0,0,1,1,1,1,0,0,'Roma'
584,20,8,0,0,0,0,1,0,1,0,0,0,'Roma'
723,14,7,0,0,0,0,0,0,1,1,0,0,'Roma'
632,17,8,0,0,0,0,1,0,0,1,0,0,'Roma'
622,18,8,0,0,0,0,1,1,1,1,0,0,'Roma'
678,16,9,0,0,0,0,1,0,1,1,0,0,'Roma'
581,20,8,0,0,0,0,1,1,1,1,0,0,'Roma'
720,14,7,0,0,0,0,0,1,1,0,0,0,'Roma'
632,17,8,0,0,0,0,1,1,0,1,0,0,'Roma'
624,18,8,0,0,0,0,1,0,1,1,0,0,'Roma'
675,16,9,0,0,0,0,1,1,0,1,0,0,'Roma'
585,20,8,0,0,0,0,1,1,1,0,0,0,'Roma'
722,14,7,0,0,0,0,1,0,1,1,0,0,'Roma'
630,17,8,0,0,0,0,0,0,1,1,0,0,'Roma'
623,18,8,0,0,0,0,1,1,0,1,0,0,'Roma'
670,16,9,0,0,0,0,0,1,0,1,0,0,'Roma'
584,20,8,0,0,0,0,1,1,1,1,0,0,'Roma'
720,14,7,0,0,0,0,1,0,1,0,0,0,'Roma'
638,17,8,0,0,0,0,1,0,1,0,0,0,'Roma'
620,18,8,0,0,0,0,1,0,1,1,0,0,'Roma'
674,16,9,0,0,0,0,0,1,0,1,0,0,'Roma'
587,20,8,0,0,0,0,1,1,0,0,0,0,'Roma'
722,14,7,0,0,0,0,1,0,1,1,0,0,'Roma'
630,17,8,0,0,0,0,1,0,1,1,0,0,'Roma'
628,18,8,0,0,0,0,1,1,0,1,0,0,'Roma'
677,16,9,0,0,0,0,1,0,1,1,0,0,'Roma'
582,20,8,0,0,0,0,1,0,1,0,0,0,'Roma'
726,14,7,0,0,0,0,1,0,0,1,0,0,'Roma'
632,17,8,0,0,0,0,0,1,1,0,0,0,'Roma'
628,18,8,0,0,0,0,0,1,0,1,0,0,'Roma'
670,16,9,0,0,0,0,1,1,1,1,0,0,'Roma'
584,20,8,0,0,0,0,1,0,1,0,0,0,'Roma'
723,14,7,0,0,0,0,0,0,1,1,0,0,'Roma'
632,17,8,0,0,0,0,1,0,0,1,0,0,'Roma'
622,18,8,0,0,0,0,1,1,1,1,0,0,'Roma'
678,16,9,0,0,0,0,1,0,1,1,0,0,'Roma'
581,20,8,0,0,0,0,1,1,1,1,0,0,'Roma'
720,14,7,0,0,0,0,0,1,1,0,0,0,'Roma'
632,17,8,0,0,0,0,1,1,0,1,0,0,'Roma'
624,18,8,0,0,0,0,1,0,1,1,0,0,'Roma'
675,16,9,0,0,0,0,1,1,0,1,0,0,'Roma'
585,20,8,0,0,0,0,1,1,1,0,0,0,'Roma'
722,14,7,0,0,0,0,1,0,1,1,0,0,'Roma'
630,17,8,0,0,0,0,0,0,1,1,0,0,'Roma'
623,18,8,0,0,0,0,1,1,0,1,0,0,'Roma'
670,16,9,0,0,0,0,0,1,0,1,0,0,'Roma'
584,20,8,0,0,0,0,1,1,1,1,0,0,'Roma'
720,14,7,0,0,0,0,1,0,1,0,0,0,'Roma'
638,17,8,0,0,0,0,1,0,1,0,0,0,'Roma'
620,18,8,0,0,0,0,1,0,1,1,0,0,'Roma'
674,16,9,0,0,0,0,0,1,0,1,0,0,'Roma'
587,20,8,0,0,0,0,1,1,0,0,0,0,'Roma'
722,14,7,0,0,0,0,1,0,1,1,0,0,'Roma'
630,17,8,0,0,0,0,1,0,1,1,0,0,'Roma'
628,18,8,0,0,0,0,1,1,0,1,0,0,'Roma'
677,16,9,0,0,0,0,1,0,1,1,0,0,'Roma'
582,20,8,0,0,0,0,1,0,1,0,0,0,'Roma'
726,14,7,0,0,0,0,1,0,0,1,0,0,'Roma'
632,17,8,0,0,0,0,0,1,1,0,0,0,'Roma'
628,18,8,0,0,0,0,0,1,0,1,0,0,'Roma'
670,16,9,0,0,0,0,1,1,1,1,0,0,'Roma'
584,20,8,0,0,0,0,1,0,1,0,0,0,'Roma'
723,14,7,0,0,0,0,0,0,1,1,0,0,'Roma'
632,17,8,0,0,0,0,1,0,0,1,0,0,'Roma'
1214,20,8,1,0,0,0,0,1,1,1,0,0,'Sidney'
1251,18,9,1,0,0,0,0,0,1,0,0,0,'Sidney'
1152,22,8,1,0,0,0,0,1,0,1,0,0,'Sidney'
1305,16,7,1,0,0,0,0,1,1,0,0,0,'Sidney'
1183,19,8,1,0,0,0,0,1,0,1,0,0,'Sidney'
1209,20,8,1,0,0,0,0,1,1,1,0,0,'Sidney'
1253,18,9,1,0,0,0,0,1,1,0,0,0,'Sidney'
1154,22,8,1,0,0,0,0,1,0,1,0,0,'Sidney'
1305,16,7,1,0,0,0,0,0,1,1,0,0,'Sidney'
1188,19,8,1,0,0,0,0,1,1,0,0,0,'Sidney'
1208,20,8,1,0,0,0,0,1,1,1,0,0,'Sidney'
1257,18,9,1,0,0,0,0,0,1,0,0,0,'Sidney'
1150,22,8,1,0,0,0,0,1,1,0,0,0,'Sidney'
1305,16,7,1,0,0,0,0,1,1,1,0,0,'Sidney'
1181,19,8,1,0,0,0,0,1,1,1,0,0,'Sidney'
1202,20,8,1,0,0,0,0,0,1,1,0,0,'Sidney'
1250,18,9,1,0,0,0,0,0,1,1,0,0,'Sidney'
1155,22,8,1,0,0,0,0,1,1,1,0,0,'Sidney'
1307,16,7,1,0,0,0,0,1,0,1,0,0,'Sidney'
1183,19,8,1,0,0,0,0,1,1,1,0,0,'Sidney'
1205,20,8,1,0,0,0,0,1,0,0,0,0,'Sidney'
1252,18,9,1,0,0,0,0,1,1,1,0,0,'Sidney'
1158,22,8,1,0,0,0,0,0,0,1,0,0,'Sidney'
1309,16,7,1,0,0,0,0,1,1,0,0,0,'Sidney'
1182,19,8,1,0,0,0,0,1,0,1,0,0,'Sidney'
1204,20,8,1,0,0,0,0,1,1,1,0,0,'Sidney'
1250,18,9,1,0,0,0,0,1,1,0,0,0,'Sidney'
1155,22,8,1,0,0,0,0,0,1,1,0,0,'Sidney'
1300,16,7,1,0,0,0,0,0,1,1,0,0,'Sidney'
1181,19,8,1,0,0,0,0,1,0,1,0,0,'Sidney'
1214,20,8,1,0,0,0,0,1,1,1,0,0,'Sidney'
1251,18,9,1,0,0,0,0,0,1,0,0,0,'Sidney'
1152,22,8,1,0,0,0,0,1,0,1,0,0,'Sidney'
1305,16,7,1,0,0,0,0,1,1,0,0,0,'Sidney'
1183,19,8,1,0,0,0,0,1,0,1,0,0,'Sidney'
1209,20,8,1,0,0,0,0,1,1,1,0,0,'Sidney'
1253,18,9,1,0,0,0,0,1,1,0,0,0,'Sidney'
1154,22,8,1,0,0,0,0,1,0,1,0,0,'Sidney'
1305,16,7,1,0,0,0,0,0,1,1,0,0,'Sidney'
1188,19,8,1,0,0,0,0,1,1,0,0,0,'Sidney'
1208,20,8,1,0,0,0,0,1,1,1,0,0,'Sidney'
1257,18,9,1,0,0,0,0,0,1,0,0,0,'Sidney'
1150,22,8,1,0,0,0,0,1,1,0,0,0,'Sidney'
1305,16,7,1,0,0,0,0,1,1,1,0,0,'Sidney'
1181,19,8,1,0,0,0,0,1,1,1,0,0,'Sidney'
1202,20,8,1,0,0,0,0,0,1,1,0,0,'Sidney'
1250,18,9,1,0,0,0,0,0,1,1,0,0,'Sidney'
1155,22,8,1,0,0,0,0,1,1,1,0,0,'Sidney'
1307,16,7,1,0,0,0,0,1,0,1,0,0,'Sidney'
1183,19,8,1,0,0,0,0,1,1,1,0,0,'Sidney'
1205,20,8,1,0,0,0,0,1,0,0,0,0,'Sidney'
1252,18,9,1,0,0,0,0,1,1,1,0,0,'Sidney'
1158,22,8,1,0,0,0,0,0,0,1,0,0,'Sidney'
1309,16,7,1,0,0,0,0,1,1,0,0,0,'Sidney'
1182,19,8,1,0,0,0,0,1,0,1,0,0,'Sidney'
1204,20,8,1,0,0,0,0,1,1,1,0,0,'Sidney'
1250,18,9,1,0,0,0,0,1,1,0,0,0,'Sidney'
1155,22,8,1,0,0,0,0,0,1,1,0,0,'Sidney'
1300,16,7,1,0,0,0,0,0,1,1,0,0,'Sidney'
1181,19,8,1,0,0,0,0,1,0,1,0,0,'Sidney'
1214,20,8,1,0,0,0,0,1,1,1,0,0,'Sidney'
1251,18,9,1,0,0,0,0,0,1,0,0,0,'Sidney'
1152,22,8,1,0,0,0,0,1,0,1,0,0,'Sidney'
1305,16,7,1,0,0,0,0,1,1,0,0,0,'Sidney'
1183,19,8,1,0,0,0,0,1,0,1,0,0,'Sidney'
1209,20,8,1,0,0,0,0,1,1,1,0,0,'Sidney'
1253,18,9,1,0,0,0,0,1,1,0,0,0,'Sidney'
1154,22,8,1,0,0,0,0,1,0,1,0,0,'Sidney'
1305,16,7,1,0,0,0,0,0,1,1,0,0,'Sidney'
1188,19,8,1,0,0,0,0,1,1,0,0,0,'Sidney'
1208,20,8,1,0,0,0,0,1,1,1,0,0,'Sidney'
1257,18,9,1,0,0,0,0,0,1,0,0,0,'Sidney'
1150,22,8,1,0,0,0,0,1,1,0,0,0,'Sidney'
1305,16,7,1,0,0,0,0,1,1,1,0,0,'Sidney'
1181,19,8,1,0,0,0,0,1,1,1,0,0,'Sidney'
1202,20,8,1,0,0,0,0,0,1,1,0,0,'Sidney'
1250,18,9,1,0,0,0,0,0,1,1,0,0,'Sidney'
1155,22,8,1,0,0,0,0,1,1,1,0,0,'Sidney'
1307,16,7,1,0,0,0,0,1,0,1,0,0,'Sidney'
1183,19,8,1,0,0,0,0,1,1,1,0,0,'Sidney'
1205,20,8,1,0,0,0,0,1,0,0,0,0,'Sidney'
1252,18,9,1,0,0,0,0,1,1,1,0,0,'Sidney'
1158,22,8,1,0,0,0,0,0,0,1,0,0,'Sidney'
1309,16,7,1,0,0,0,0,1,1,0,0,0,'Sidney'
1182,19,8,1,0,0,0,0,1,0,1,0,0,'Sidney'
1204,20,8,1,0,0,0,0,1,1,1,0,0,'Sidney'
1250,18,9,1,0,0,0,0,1,1,0,0,0,'Sidney'
1155,22,8,1,0,0,0,0,0,1,1,0,0,'Sidney'
1300,16,7,1,0,0,0,0,0,1,1,0,0,'Sidney'
1181,19,8,1,0,0,0,0,1,0,1,0,0,'Sidney'